%mem=80GB
%cpu=0-31
%chk=5z.chk
%rwf=/scratch/04843/gwang18/znh/

#P ROCCSD(T)=(MaxCyc=150, Full)/Gen SCF=(maxcycle=400, vshift=200) Pseudo=Read Integral(NoXCTest) Pop=Regular MaxDisk=500GB Guess=Read IOp(5/15=2)

CoH

0 3
Co 0.0 0.0 0.0
H 0.0 0.0 1.6

Co     0 
S   1   1.00
      1.61030E+08            1.000000    
S   1   1.00
      2.87558E+07            1.000000    
S   1   1.00
      6.42324E+06            1.000000    
S   1   1.00
      1.72120E+06            1.000000    
S   1   1.00
 533994.0000000              1.000000    
S   1   1.00
 186194.0000000              1.000000    
S   1   1.00
  71201.7000000              1.000000    
S   1   1.00
  29276.2000000              1.000000    
S   1   1.00
  12742.3000000              1.000000    
S   1   1.00
   5800.5100000              1.000000    
S   1   1.00
   2736.9600000              1.000000    
S   1   1.00
   1329.9900000              1.000000    
S   1   1.00
    662.6110000              1.000000    
S   1   1.00
    337.4150000              1.000000    
S   1   1.00
    175.2340000              1.000000    
S   1   1.00
     92.6434000              1.000000    
S   1   1.00
     49.7576000              1.000000    
S   1   1.00
     27.0728000              1.000000    
S   1   1.00
     14.8610000              1.000000    
S   1   1.00
      8.1812100              1.000000    
S   1   1.00
      4.4794100              1.000000    
S   1   1.00
      2.4119100              1.000000    
S   1   1.00
      1.2584400              1.000000    
S   1   1.00
      0.6312340              1.000000    
S   1   1.00
      0.2152970              1.000000    
S   1   1.00
      0.1185100              1.000000    
S   1   1.00
      0.0572090              1.000000    
S   1   1.00
      0.0271660              1.0000000        
S   1   1.00
      7.3346000              1.0000000        
S   1   1.00
      2.6036000              1.0000000        
S   1   1.00
      0.0129000              1.0000000        
P   1   1.00
  97512.6000000              1.000000       
P   1   1.00
  23815.1000000              1.000000       
P   1   1.00
   7540.4300000              1.000000       
P   1   1.00
   2854.0800000              1.000000       
P   1   1.00
   1217.6900000              1.000000       
P   1   1.00
    562.5150000              1.000000       
P   1   1.00
    274.2740000              1.000000       
P   1   1.00
    139.1140000              1.000000       
P   1   1.00
     72.8598000              1.000000       
P   1   1.00
     39.2448000              1.000000       
P   1   1.00
     21.6430000              1.000000       
P   1   1.00
     12.1149000              1.000000       
P   1   1.00
      6.7691200              1.000000       
P   1   1.00
      3.7052800              1.000000       
P   1   1.00
      1.9790100              1.000000       
P   1   1.00
      1.0312700              1.000000       
P   1   1.00
      0.5136090              1.000000       
P   1   1.00
      0.2044820              1.000000       
P   1   1.00
      0.0838700              1.000000       
P   1   1.00
      0.0341020              1.0000000        
P   1   1.00
     11.2264000              1.0000000        
P   1   1.00
      3.6309000              1.0000000        
P   1   1.00
      0.0138700              1.0000000        
D   1   1.00
    545.1100000              1.000000       
D   1   1.00
    160.5580000              1.000000       
D   1   1.00
     61.6223000              1.000000       
D   1   1.00
     26.8224000              1.000000       
D   1   1.00
     12.4583000              1.000000       
D   1   1.00
      6.0606600              1.000000       
D   1   1.00
      2.9951700              1.000000       
D   1   1.00
      1.4647770              1.000000       
D   1   1.00
      0.6982420              1.000000       
D   1   1.00
      0.3200570              1.000000       
D   1   1.00
      0.1388040              1.000000       
D   1   1.00
      0.0550170              1.0000000        
D   1   1.00
      8.0293000              1.0000000        
D   1   1.00
      4.9005000              1.0000000        
D   1   1.00
      0.0218100              1.0000000        
F   1   1.00
     12.5542000              1.0000000        
F   1   1.00
      5.5551000              1.0000000        
F   1   1.00
      2.4581000              1.0000000        
F   1   1.00
      1.0877000              1.0000000        
F   1   1.00
      0.3686000              1.0000000        
F   1   1.00
      0.1249100              1.0000000        
G   1   1.00
      8.7355000              1.0000000        
G   1   1.00
      4.2811000              1.0000000        
G   1   1.00
      2.0981000              1.0000000        
G   1   1.00
      0.7828000              1.0000000        
G   1   1.00
      0.2920600              1.0000000        
H   1   1.00
      7.8788000              1.0000000        
H   1   1.00
      3.7437000              1.0000000        
H   1   1.00
      1.5288000              1.0000000        
H   1   1.00
      0.6243100              1.0000000        
I   1   1.00
      8.0114000              1.0000000        
I   1   1.00
      3.6607000              1.0000000        
I   1   1.00
      1.6727100              1.0000000        
****
H     0 
S   1   1.00
    402.0000000              1.000000        
S   1   1.00
     60.2400000              1.000000        
S   1   1.00
     13.7300000              1.000000        
S   1   1.00
      3.9050000              1.000000        
S   1   1.00
      1.2830000              1.0000000        
S   1   1.00
      0.4655000              1.0000000        
S   1   1.00
      0.1811000              1.0000000        
S   1   1.00
      0.0727900              1.0000000        
S   1   1.00
      0.0207000              1.0000000        
P   1   1.00
      4.5160000              1.0000000        
P   1   1.00
      1.7120000              1.0000000        
P   1   1.00
      0.6490000              1.0000000        
P   1   1.00
      0.2460000              1.0000000        
P   1   1.00
      0.0744000              1.0000000        
D   1   1.00
      2.9500000              1.0000000        
D   1   1.00
      1.2060000              1.0000000        
D   1   1.00
      0.4930000              1.0000000        
D   1   1.00
      0.1560000              1.0000000        
F   1   1.00
      2.5060000              1.0000000        
F   1   1.00
      0.8750000              1.0000000        
F   1   1.00
      0.2740000              1.0000000        
G   1   1.00
      2.3580000              1.0000000        
G   1   1.00
      0.5430000              1.0000000        
****

Co 0
ECP10MDF 3 10
F-Komponente
1
2 1.000000 0.000000
S-F
2
2 23.660000 283.960566
2 10.610000 47.156846
P-F
2
2 25.040000 182.212236
2 10.440000 35.233352
D-F
2
2 29.540000 -26.475333
2 10.180000 -1.825787
H 0
QMC 1 0

3
2   21.77696655044365      -10.85192405303825
1   21.24359508259891        1.00000000000000
3   21.24359508259891       21.24359508259891

1
2    1.               0.

