%mem=80GB
%cpu=0-31
%chk=tz.chk
%rwf=/scratch/04843/gwang18/feo/

#P ROCCSD(T)=(MaxCyc=150, Full)/Gen SCF=(maxcycle=400) Pseudo=Read Integral(NoXCTest) Pop=Regular MaxDisk=500GB

FeO

0 5
Fe 0.0 0.0 0.0
O 0.0 0.0 1.4

Fe     0 
S   1   1.00
 4316265.0000000             1.0000000       
S   1   1.00
 646342.4000000              1.0000000       
S   1   1.00
 147089.7000000              1.0000000       
S   1   1.00
  41661.5200000              1.0000000       
S   1   1.00
  13590.7700000              1.0000000       
S   1   1.00
   4905.7500000              1.0000000       
S   1   1.00
   1912.7460000              1.0000000       
S   1   1.00
    792.6043000              1.0000000       
S   1   1.00
    344.8065000              1.0000000       
S   1   1.00
    155.8999000              1.0000000       
S   1   1.00
     72.2309100              1.0000000       
S   1   1.00
     32.7250600              1.0000000       
S   1   1.00
     15.6676200              1.0000000       
S   1   1.00
      7.5034830              1.0000000       
S   1   1.00
      3.3122230              1.0000000       
S   1   1.00
      1.5584710              1.0000000       
S   1   1.00
      0.6839140              1.0000000       
S   1   1.00
      0.1467570              1.0000000       
S   1   1.00
      0.0705830              1.0000000       
S   1   1.00
      0.0314490              1.0000000        
S   1   1.00
      4.6844000              1.0000000        
S   1   1.00
      1.2204000              1.0000000        
S   1   1.00
      0.0140100              1.0000000        
P   1   1.00
  17745.6900000              1.0000000       
P   1   1.00
   4200.7210000              1.0000000       
P   1   1.00
   1364.4290000              1.0000000       
P   1   1.00
    522.0806000              1.0000000       
P   1   1.00
    221.4595000              1.0000000       
P   1   1.00
    100.9096000              1.0000000       
P   1   1.00
     48.4011500              1.0000000       
P   1   1.00
     23.9853600              1.0000000       
P   1   1.00
     12.1825000              1.0000000       
P   1   1.00
      6.2422980              1.0000000       
P   1   1.00
      3.1109440              1.0000000       
P   1   1.00
      1.5099580              1.0000000       
P   1   1.00
      0.7108450              1.0000000       
P   1   1.00
      0.2725980              1.0000000       
P   1   1.00
      0.1039720              1.0000000       
P   1   1.00
      0.0381660              1.0000000        
P   1   1.00
      6.8788000              1.0000000        
P   1   1.00
      1.5748000              1.0000000        
P   1   1.00
      0.0140100              1.0000000        
D   1   1.00
    114.8840000              1.0000000       
D   1   1.00
     33.8878000              1.0000000       
D   1   1.00
     12.3730000              1.0000000       
D   1   1.00
      4.9992500              1.0000000       
D   1   1.00
      2.0704300              1.0000000       
D   1   1.00
      0.8281830              1.0000000       
D   1   1.00
      0.3075470              1.0000000       
D   1   1.00
      0.0994550              1.0000000        
D   1   1.00
      4.5305000              1.0000000        
D   1   1.00
      2.1205000              1.0000000        
D   1   1.00
      0.0321600              1.0000000        
F   1   1.00
      6.0066000              1.0000000        
F   1   1.00
      2.2522000              1.0000000        
F   1   1.00
      0.7758000              1.0000000        
F   1   1.00
      0.2672300              1.0000000        
G   1   1.00
      5.5068000              1.0000000        
G   1   1.00
      2.0515000              1.0000000        
G   1   1.00
      0.7642600              1.0000000        
****
O     0 
S   1   1.00
  15330.0000000              1.000000       
S   1   1.00
   2299.0000000              1.000000       
S   1   1.00
    522.4000000              1.000000       
S   1   1.00
    147.3000000              1.000000       
S   1   1.00
     47.5500000              1.000000       
S   1   1.00
     16.7600000              1.000000       
S   1   1.00
      6.2070000              1.000000       
S   1   1.00
      0.6882000              1.000000       
S   1   1.00
      1.7520000              1.0000000        
S   1   1.00
      0.2384000              1.0000000        
S   1   1.00
      7.8450000              1.0000000        
S   1   1.00
     21.0320000              1.0000000        
S   1   1.00
      0.0737600              1.0000000        
P   1   1.00
     34.4600000              1.000000        
P   1   1.00
      7.7490000              1.000000        
P   1   1.00
      2.2800000              1.000000        
P   1   1.00
      0.7156000              1.0000000        
P   1   1.00
      0.2140000              1.0000000        
P   1   1.00
     15.1590000              1.0000000        
P   1   1.00
     57.4370000              1.0000000        
P   1   1.00
      0.0597400              1.0000000        
D   1   1.00
      2.3140000              1.0000000        
D   1   1.00
      0.6450000              1.0000000        
D   1   1.00
     15.8580000              1.0000000        
D   1   1.00
      0.2140000              1.0000000        
F   1   1.00
      1.4280000              1.0000000        
F   1   1.00
      0.5000000              1.0000000        
****

Fe 0
ECEPP 3 10          

6
1 16.90683491      16.00000000
2 18.40258134   26847.81569895
2  6.30300831    -133.54888707
2 18.42848726  -26765.40492320
2 18.43432023       1.00742417
3  7.01300654     270.50935856

6
2  9.62463353   20308.89993480
2  9.12709550  -17595.21707731
2  7.54163840    1884.69012383
2 12.70900949   -4483.50209856
2  8.14863339   -1094.38597968
2 16.27611739    1032.95376659

6
2 11.36514719    -905.00711112
2 14.56762424   34640.93582590
2 15.05861359  -42299.94223895
2 17.41337089   10633.68808757
2 18.37467520   -5844.19723669
2 17.04734437    3803.80414779

6
2 10.13935738  -11031.18647055
2 13.45796076   16711.37502047
2 10.97387824   37989.95033676
2 11.92919033  -41782.92514683
2 17.71230120    3812.58339812
2 17.32108913   -5718.00854971
O 0
QMC 2 2

6
1 10.27717748       6.00000000
2 15.99566749    1232.50197768
2 10.46901775    -696.47008301
2 14.63848010   -2654.22657081
2 12.57591181    2101.67732548
3  7.77739102      61.66306486

6
2 12.39426073 -656683.37638839
2 12.38126171  657858.57667068
2  8.57671033     511.50098405
2  9.89256508   -2579.54665641
2 28.05641604     -57.68129584
2 17.24753607     970.30940152

6
2 14.78918914 -363027.24258186
2 14.82014018  361852.52314043
2 22.89622221   -1300.20069256
2  8.51331893    -181.96869573
2 11.48609758    2194.87589959
2 27.22017524     451.19906206

