%MEM=160GB
%CPU=0-31
%RWF=/scratch/04843/aannabe/gaussian/
%Int=/scratch/04843/aannabe/gaussian/
%D2E=/scratch/04843/aannabe/gaussian/
%NoSave
%CHK=Mn


!Make sure DKHSO is turned off
#P ROCCSD(T)=(maxcyc=150, Full)/Gen 5d 7f SCF=(maxcycles=300, NoVarAcc, VShift=200) MaxDisk=100GB Pop=Regular Pseudo=Read Guess=Read IOp(5/15=2) 
!#P ROHF/Gen 5d 7f SCF=(maxcycles=300, VShift=300) MaxDisk=100GB Pop=Regular Pseudo=Read !Guess=Read IOp(5/15=2) 

Mn

0 6
Mn 0.0 0.0 0.0

Mn     0 
S   1   1.00
  38448.1400000              1.000       
S   1   1.00
  13881.7100000              1.000       
S   1   1.00
   5415.0020000              1.000       
S   1   1.00
   2246.4600000              1.000       
S   1   1.00
    980.1463000              1.000       
S   1   1.00
    445.8952000              1.000       
S   1   1.00
    210.0558000              1.000       
S   1   1.00
    101.8046000              1.000       
S   1   1.00
     50.0112600              1.000       
S   1   1.00
     22.9393900              1.000       
S   1   1.00
     11.5226400              1.000       
S   1   1.00
      5.7763380              1.000       
S   1   1.00
      2.6259590              1.000       
S   1   1.00
      1.2603220              1.000       
S   1   1.00
      0.5771300              1.000       
S   1   1.00
      0.1365820              1.000       
S   1   1.00
      0.0635350              1.000       
S   1   1.00
      0.0285210              1.0000000        
S   1   1.00
      5.3389000              1.0000000        
S   1   1.00
      1.6013000              1.0000000        
S   1   1.00
      0.0128000              1.0000000        
P   1   1.00
   2688.4650000              1.000       
P   1   1.00
   1029.4900000              1.000       
P   1   1.00
    438.0708000              1.000       
P   1   1.00
    200.6153000              1.000       
P   1   1.00
     97.0076900              1.000       
P   1   1.00
     48.8705200              1.000       
P   1   1.00
     25.2928100              1.000       
P   1   1.00
     13.3538200              1.000       
P   1   1.00
      7.1317860              1.000       
P   1   1.00
      3.7643650              1.000       
P   1   1.00
      1.9462650              1.000       
P   1   1.00
      0.9854550              1.000       
P   1   1.00
      0.4818650              1.000       
P   1   1.00
      0.18822219             1.000       
P   1   1.00
      0.07753957             1.000       
P   1   1.00
      0.03154945             1.0000000        
P   1   1.00
      7.3423000              1.0000000        
P   1   1.00
      1.9340000              1.0000000        
P   1   1.00
      0.0128400              1.0000000        
D   1   1.00
    313.1090000              1.000       
D   1   1.00
     92.5276000              1.000       
D   1   1.00
     35.4191000              1.000       
D   1   1.00
     15.1577000              1.000       
D   1   1.00
      6.9096400              1.000       
D   1   1.00
      3.2725600              1.000       
D   1   1.00
      1.5493600              1.000       
D   1   1.00
      0.7170940              1.000       
D   1   1.00
      0.3193100              1.000       
D   1   1.00
      0.1341570              1.000       
D   1   1.00
      0.0514000              1.0000000        
D   1   1.00
      4.6851000              1.0000000        
D   1   1.00
      2.4217000              1.0000000        
D   1   1.00
      0.0196900              1.0000000        
F   1   1.00
      6.6540000              1.0000000        
F   1   1.00
      2.7676000              1.0000000        
F   1   1.00
      1.1511000              1.0000000        
F   1   1.00
      0.3812000              1.0000000        
F   1   1.00
      0.1262400              1.0000000        
G   1   1.00
      5.4683000              1.0000000        
G   1   1.00
      2.3327000              1.0000000        
G   1   1.00
      0.8520000              1.0000000        
G   1   1.00
      0.3111900              1.0000000        
H   1   1.00
      5.1185000              1.0000000        
H   1   1.00
      1.9660000              1.0000000        
H   1   1.00
      0.7551300              1.0000000        
****

Mn 0
QMC 2 10

4
1 2.40212385949000e+01  15.000
3 2.28429084496000e+01  360.3185789235
2 2.19563423716000e+01 -1.52657486650000e+02
2 6.34088215108000e+00 -2.06227589510000e+00

2
2 1.85443987198000e+01  2.45197839575000e+02
2 8.36552482167000e+00  3.32542237051000e+01

2
2 1.93639665638000e+01  1.63523862093000e+02
2 8.44717080728000e+00  2.51931114429000e+01

