%mem=80GB
%chk=5z.chk
%cpu=0-31

#P ROCCSD(T)=(MaxCyc=150, FrzINGC)/Gen SCF=(maxcycle=400) Integral(DKHSO, NoXCTest) Pop=Regular MaxDisk=500GB Guess=Permute IOp(5/15=2)

Fe

0 5
Fe 0.0 0.0 0.0

Fe     0 
S   1   1.00
      1.497690E+08           1.0000000    
S   1   1.00
      2.672250E+07           1.0000000    
S   1   1.00
      5.959000E+06           1.0000000    
S   1   1.00
      1.593610E+06           1.0000000    
S   1   1.00
      4.934640E+05           1.0000000    
S   1   1.00
      1.717900E+05           1.0000000    
S   1   1.00
      6.562090E+04           1.0000000    
S   1   1.00
      2.696560E+04           1.0000000    
S   1   1.00
      1.173530E+04           1.0000000    
S   1   1.00
      5.343430E+03           1.0000000    
S   1   1.00
      2.522500E+03           1.0000000    
S   1   1.00
      1.226430E+03           1.0000000    
S   1   1.00
      6.112690E+02           1.0000000    
S   1   1.00
      3.113080E+02           1.0000000    
S   1   1.00
      1.616240E+02           1.0000000    
S   1   1.00
      8.537670E+01           1.0000000    
S   1   1.00
      4.579110E+01           1.0000000    
S   1   1.00
      2.486770E+01           1.0000000    
S   1   1.00
      1.362020E+01           1.0000000    
S   1   1.00
      7.481060E+00           1.0000000    
S   1   1.00
      4.088170E+00           1.0000000    
S   1   1.00
      2.199050E+00           1.0000000    
S   1   1.00
      1.148150E+00           1.0000000    
S   1   1.00
      5.772650E-01           1.0000000    
S   1   1.00
      1.976350E-01           1.0000000    
S   1   1.00
      1.089860E-01           1.0000000    
S   1   1.00
      5.321600E-02           1.0000000    
S   1   1.00
      2.557100E-02           1.0000000        
S   1   1.00
      6.622400E+00           1.0000000        
S   1   1.00
      2.214000E+00           1.0000000        
S   1   1.00
      0.0122900              1.0000000        
P   1   1.00
      8.694730E+04           1.0000000    
P   1   1.00
      2.125400E+04           1.0000000    
P   1   1.00
      6.741140E+03           1.0000000    
P   1   1.00
      2.557160E+03           1.0000000    
P   1   1.00
      1.093510E+03           1.0000000    
P   1   1.00
      5.061610E+02           1.0000000    
P   1   1.00
      2.471390E+02           1.0000000    
P   1   1.00
      1.254150E+02           1.0000000    
P   1   1.00
      6.565120E+01           1.0000000    
P   1   1.00
      3.530790E+01           1.0000000    
P   1   1.00
      1.942600E+01           1.0000000    
P   1   1.00
      1.084380E+01           1.0000000    
P   1   1.00
      6.043590E+00           1.0000000    
P   1   1.00
      3.302450E+00           1.0000000    
P   1   1.00
      1.763890E+00           1.0000000    
P   1   1.00
      9.213860E-01           1.0000000    
P   1   1.00
      4.603730E-01           1.0000000    
P   1   1.00
      1.837720E-01           1.0000000    
P   1   1.00
      7.583300E-02           1.0000000    
P   1   1.00
      3.109900E-02           1.0000000        
P   1   1.00
      1.001280E+01           1.0000000        
P   1   1.00
      3.186900E+00           1.0000000        
P   1   1.00
      0.0127500              1.0000000        
D   1   1.00
      5.184160E+02           1.0000000    
D   1   1.00
      1.528190E+02           1.0000000    
D   1   1.00
      5.858690E+01           1.0000000    
D   1   1.00
      2.545640E+01           1.0000000    
D   1   1.00
      1.178680E+01           1.0000000    
D   1   1.00
      5.718610E+00           1.0000000    
D   1   1.00
      2.824170E+00           1.0000000    
D   1   1.00
      1.379850E+00           1.0000000    
D   1   1.00
      6.561600E-01           1.0000000    
D   1   1.00
      2.996090E-01           1.0000000    
D   1   1.00
      1.293610E-01           1.0000000    
D   1   1.00
      5.115500E-02           1.0000000        
D   1   1.00
      7.098200E+00           1.0000000        
D   1   1.00
      4.277200E+00           1.0000000        
D   1   1.00
      0.0202300              1.0000000        
F   1   1.00
      1.104710E+01           1.0000000        
F   1   1.00
      4.854100E+00           1.0000000        
F   1   1.00
      2.132900E+00           1.0000000        
F   1   1.00
      9.372000E-01           1.0000000        
F   1   1.00
      3.141000E-01           1.0000000        
F   1   1.00
      0.1052700              1.0000000        
G   1   1.00
      7.547500E+00           1.0000000        
G   1   1.00
      3.673700E+00           1.0000000        
G   1   1.00
      1.788100E+00           1.0000000        
G   1   1.00
      6.564000E-01           1.0000000        
G   1   1.00
      0.2409600              1.0000000        
H   1   1.00
      6.926300E+00           1.0000000        
H   1   1.00
      3.252700E+00           1.0000000        
H   1   1.00
      1.296400E+00           1.0000000        
H   1   1.00
      0.5166900              1.0000000        
I   1   1.00
      7.056900E+00           1.0000000        
I   1   1.00
      1.3776500              1.0000000    
****

1-9 15 10 11 12 13 14


