%MEM=160GB
%CPU=0-31
%RWF=/scratch/04843/aannabe/gaussian/
%Int=/scratch/04843/aannabe/gaussian/
%D2E=/scratch/04843/aannabe/gaussian/
%NoSave
%CHK=MnH

!Make sure DKHSO is turned off
#P ROCCSD(T)=(maxcyc=150, Full,   ReadAmplitudes)/Gen 5d 7f SCF=(maxcycles=300, VShift=400) Integral(NoXCTest) MaxDisk=500GB Pop=Full Pseudo=Read Guess=Read !IOp(5/15=2) 

MnH

0 7
Mn 0.0 0.0 0.0
H  0.0 0.0 1.60

Mn     0 
S   1   1.00
  10772.3000000              1.000    
S   1   1.00
   4895.5400000              1.000    
S   1   1.00
   2306.5600000              1.000    
S   1   1.00
   1119.5600000              1.000    
S   1   1.00
    557.3810000              1.000    
S   1   1.00
    283.7780000              1.000    
S   1   1.00
    147.4360000              1.000    
S   1   1.00
     78.0227000              1.000    
S   1   1.00
     41.9679000              1.000    
S   1   1.00
     22.8778000              1.000    
S   1   1.00
     12.5845000              1.000    
S   1   1.00
      6.9417000              1.000    
S   1   1.00
      3.8062900              1.000    
S   1   1.00
      2.0503100              1.000    
S   1   1.00
      1.0683800              1.000    
S   1   1.00
      0.5366060              1.000    
S   1   1.00
      0.1832600              1.000    
S   1   1.00
      0.1052970              1.000    
S   1   1.00
      0.0514640              1.000    
S   1   1.00
      0.0246780              1.0000000        
S   1   1.00
      5.8340000              1.0000000        
S   1   1.00
      1.9879000              1.0000000        
S   1   1.00
      0.0118300              1.0000000        
P   1   1.00
   6114.1000000              1.000       
P   1   1.00
   2316.2600000              1.000       
P   1   1.00
    989.6900000              1.000       
P   1   1.00
    457.9420000              1.000       
P   1   1.00
    223.6420000              1.000       
P   1   1.00
    113.5940000              1.000       
P   1   1.00
     59.5621000              1.000       
P   1   1.00
     32.1072000              1.000       
P   1   1.00
     17.7103000              1.000       
P   1   1.00
      9.9062100              1.000       
P   1   1.00
      5.5224300              1.000       
P   1   1.00
      3.0083200              1.000       
P   1   1.00
      1.5987300              1.000       
P   1   1.00
      0.8308680              1.000       
P   1   1.00
      0.4135380              1.000       
P   1   1.00
      0.1712140              1.000       
P   1   1.00
      0.0721220              1.000       
P   1   1.00
      0.0301100              1.0000000        
P   1   1.00
      8.8318000              1.0000000        
P   1   1.00
      2.6917000              1.0000000        
P   1   1.00
      0.0125700              1.0000000        
D   1   1.00
    449.7850000              1.000       
D   1   1.00
    132.7510000              1.000       
D   1   1.00
     50.9528000              1.000       
D   1   1.00
     22.1594000              1.000       
D   1   1.00
     10.2612000              1.000       
D   1   1.00
      4.9780300              1.000       
D   1   1.00
      2.4573000              1.000       
D   1   1.00
      1.2010100              1.000       
D   1   1.00
      0.5725160              1.000       
D   1   1.00
      0.2625960              1.000       
D   1   1.00
      0.1141400              1.000       
D   1   1.00
      0.0456420              1.0000000        
D   1   1.00
      5.9718000              1.0000000        
D   1   1.00
      3.5428000              1.0000000        
D   1   1.00
      0.0182500              1.0000000        
F   1   1.00
      9.4747000              1.0000000        
F   1   1.00
      4.1404000              1.0000000        
F   1   1.00
      1.8093000              1.0000000        
F   1   1.00
      0.7906000              1.0000000        
F   1   1.00
      0.2614000              1.0000000        
F   1   1.00
      0.0864300              1.0000000        
G   1   1.00
      6.4908000              1.0000000        
G   1   1.00
      3.1225000              1.0000000        
G   1   1.00
      1.5022000              1.0000000        
G   1   1.00
      0.5327000              1.0000000        
G   1   1.00
      0.1889000              1.0000000        
H   1   1.00
      6.0071000              1.0000000        
H   1   1.00
      2.7692000              1.0000000        
H   1   1.00
      1.0636000              1.0000000        
H   1   1.00
      0.4085100              1.0000000        
I   1   1.00
      6.0846000              1.0000000        
I   1   1.00
      2.5736000              1.0000000        
I   1   1.00
      1.0885500              1.0000000        
****
H     0 
S   1   1.00
    402.0000000              1.000        
S   1   1.00
     60.2400000              1.000        
S   1   1.00
     13.7300000              1.000        
S   1   1.00
      3.9050000              1.000        
S   1   1.00
      1.2830000              1.0000000        
S   1   1.00
      0.4655000              1.0000000        
S   1   1.00
      0.1811000              1.0000000        
S   1   1.00
      0.0727900              1.0000000        
S   1   1.00
      0.0207000              1.0000000        
P   1   1.00
      4.5160000              1.0000000        
P   1   1.00
      1.7120000              1.0000000        
P   1   1.00
      0.6490000              1.0000000        
P   1   1.00
      0.2460000              1.0000000        
P   1   1.00
      0.0744000              1.0000000        
D   1   1.00
      2.9500000              1.0000000        
D   1   1.00
      1.2060000              1.0000000        
D   1   1.00
      0.4930000              1.0000000        
D   1   1.00
      0.1560000              1.0000000        
F   1   1.00
      2.5060000              1.0000000        
F   1   1.00
      0.8750000              1.0000000        
F   1   1.00
      0.2740000              1.0000000        
G   1   1.00
      2.3580000              1.0000000        
G   1   1.00
      0.5430000              1.0000000        
****

Mn 0
QMC 2 10

4
1 21.9061889165646  15.000
3 21.3460106502946  328.592833748469
2 21.2709151561577 -162.049880236930
2 7.90771171832952 -1.85679609726467

2
2 18.9263045646384  244.669998154192
2 8.31114792810788  33.5399867642789

2
2 20.1624493129539  162.350195446201
2 7.79269955633082  24.1593874178617
H 0
QMC 1 0

3
2   21.77696655044365   -10.85192405303825
1   21.24359508259891   1.00000000000000
3   21.24359508259891   21.24359508259891

1
2   1.0   0.0

