%mem=80GB
%cpu=0-31
%chk=5z.chk
%rwf=/scratch/04843/gwang18/cuo/

#P ROCCSD(T)=(MaxCyc=150, Full)/Gen SCF=(maxcycle=400) Pseudo=Read Integral(NoXCTest) Pop=Regular MaxDisk=500GB Guess=Read IOp(5/15=2)

CuO

0 2
Cu 0.0 0.0 0.0
O 0.0 0.0 1.8

Cu     0 
S   1   1.00
      1.93188E+08            1.000000    
S   1   1.00
      3.39452E+07            1.000000    
S   1   1.00
      7.51046E+06            1.000000    
S   1   1.00
      2.00199E+06            1.000000    
S   1   1.00
 619378.0000000              1.000000    
S   1   1.00
 215606.0000000              1.000000    
S   1   1.00
  82327.1000000              1.000000    
S   1   1.00
  33788.4000000              1.000000    
S   1   1.00
  14670.0000000              1.000000    
S   1   1.00
   6657.4400000              1.000000    
S   1   1.00
   3130.2600000              1.000000    
S   1   1.00
   1515.6100000              1.000000    
S   1   1.00
    752.5880000              1.000000    
S   1   1.00
    382.2490000              1.000000    
S   1   1.00
    198.2370000              1.000000    
S   1   1.00
    104.8100000              1.000000    
S   1   1.00
     56.3885000              1.000000    
S   1   1.00
     30.7830000              1.000000    
S   1   1.00
     16.9770000              1.000000    
S   1   1.00
      9.3972500              1.000000    
S   1   1.00
      5.1723800              1.000000    
S   1   1.00
      2.7953500              1.000000    
S   1   1.00
      1.4589000              1.000000    
S   1   1.00
      0.7287110              1.000000    
S   1   1.00
      0.2376420              1.000000    
S   1   1.00
      0.1278210              1.000000    
S   1   1.00
      0.0618150              1.000000    
S   1   1.00
      0.0293030              1.0000000        
S   1   1.00
      9.3455000              1.0000000        
S   1   1.00
      3.3051000              1.0000000        
S   1   1.00
      0.0138900              1.0000000        
P   1   1.00
 110294.0000000              1.000000       
P   1   1.00
  26939.1000000              1.000000       
P   1   1.00
   8550.7100000              1.000000       
P   1   1.00
   3246.1900000              1.000000       
P   1   1.00
   1388.4600000              1.000000       
P   1   1.00
    642.4740000              1.000000       
P   1   1.00
    313.5700000              1.000000       
P   1   1.00
    159.1610000              1.000000       
P   1   1.00
     83.4414000              1.000000       
P   1   1.00
     45.0196000              1.000000       
P   1   1.00
     24.8894000              1.000000       
P   1   1.00
     13.9731000              1.000000       
P   1   1.00
      7.8257100              1.000000       
P   1   1.00
      4.2863200              1.000000       
P   1   1.00
      2.2903400              1.000000       
P   1   1.00
      1.1934200              1.000000       
P   1   1.00
      0.5937650              1.000000       
P   1   1.00
      0.2239870              1.000000       
P   1   1.00
      0.0890260              1.000000       
P   1   1.00
      0.0352130              1.0000000        
P   1   1.00
     14.0035000              1.0000000        
P   1   1.00
      4.5398000              1.0000000        
P   1   1.00
      0.0139300              1.0000000        
D   1   1.00
    732.8930000              1.000000       
D   1   1.00
    220.7530000              1.000000       
D   1   1.00
     85.6268000              1.000000       
D   1   1.00
     37.7178000              1.000000       
D   1   1.00
     17.7647000              1.000000       
D   1   1.00
      8.7641500              1.000000       
D   1   1.00
      4.4178660              1.000000       
D   1   1.00
      2.2180390              1.000000       
D   1   1.00
      1.0935310              1.000000       
D   1   1.00
      0.5230910              1.000000       
D   1   1.00
      0.2384750              1.000000       
D   1   1.00
      0.1000260              1.0000000        
D   1   1.00
     10.8534000              1.0000000        
D   1   1.00
      6.4396000              1.0000000        
D   1   1.00
      0.0419500              1.0000000        
F   1   1.00
     16.4096000              1.0000000        
F   1   1.00
      7.3000000              1.0000000        
F   1   1.00
      3.2475000              1.0000000        
F   1   1.00
      1.4447000              1.0000000        
F   1   1.00
      0.5005000              1.0000000        
F   1   1.00
      0.1733900              1.0000000        
G   1   1.00
     11.5984000              1.0000000        
G   1   1.00
      5.7591000              1.0000000        
G   1   1.00
      2.8596000              1.0000000        
G   1   1.00
      1.1042000              1.0000000        
G   1   1.00
      0.4263700              1.0000000        
H   1   1.00
     10.0319000              1.0000000        
H   1   1.00
      4.8836000              1.0000000        
H   1   1.00
      2.1024000              1.0000000        
H   1   1.00
      0.9050900              1.0000000        
I   1   1.00
      9.9825000              1.0000000        
I   1   1.00
      4.9428000              1.0000000        
I   1   1.00
      2.4474100              1.0000000        
****
O     0 
S   1   1.00
164200.0000000       1.000000
S   1   1.00
24590.0000000        1.000000
S   1   1.00
5592.0000000         1.000000
S   1   1.00
1582.0000000         1.000000
S   1   1.00
516.1000000          1.000000
S   1   1.00
73.9300000           1.000000
S   1   1.00
31.2200000           1.000000
S   1   1.00
13.8100000           1.000000
S   1   1.00
6.2560000            1.000000
S   1   1.00
2.7760000            1.0000000
S   1   1.00
1.1380000            1.0000000
S   1   1.00
0.4600000            1.0000000
S   1   1.00
0.1829000            1.0000000
S   1   1.00
15.6450000           1.0000000
S   1   1.00
35.8740000           1.0000000
S   1   1.00
82.2590000           1.0000000
S   1   1.00
188.6200000          1.0000000
S   1   1.00
0.0655000            1.0000000
P   1   1.00
195.5000000          1.000000
P   1   1.00
46.1600000           1.000000
P   1   1.00
14.5800000           1.000000
P   1   1.00
5.2960000            1.000000
P   1   1.00
2.0940000            1.0000000
P   1   1.00
0.8471000            1.0000000
P   1   1.00
0.3368000            1.0000000
P   1   1.00
0.1285000            1.0000000
P   1   1.00
14.0490000           1.0000000
P   1   1.00
35.4460000           1.0000000
P   1   1.00
89.4290000           1.0000000
P   1   1.00
225.6300000          1.0000000
P   1   1.00
0.0446000            1.0000000
D   1   1.00
5.8790000            1.0000000
D   1   1.00
2.3070000            1.0000000
D   1   1.00
0.9050000            1.0000000
D   1   1.00
0.3550000            1.0000000
D   1   1.00
16.7030000           1.0000000
D   1   1.00
47.3200000           1.0000000
D   1   1.00
134.0560000          1.0000000
D   1   1.00
0.1310000            1.0000000
F   1   1.00
4.0160000            1.0000000
F   1   1.00
1.5540000            1.0000000
F   1   1.00
0.6010000            1.0000000
F   1   1.00
17.3540000           1.0000000
F   1   1.00
65.5460000           1.0000000
F   1   1.00
0.2370000            1.0000000
G   1   1.00
3.3500000            1.0000000
G   1   1.00
1.1890000            1.0000000
G   1   1.00
48.5780000           1.0000000
G   1   1.00
0.5170000            1.0000000
H   1   1.00
2.3190000            1.0000000
H   1   1.00
1.0240000            1.0000000
****

Cu 0
ECEPP 3 10          

6
1 19.87662576       19.00000000
2 18.71397328    13322.83154110
2  8.24597653     -143.81933419
2 17.99726398    -6835.89401414
2 19.50653533    -6413.73731394
3  9.35936389      377.65588950

6
2 12.04327682   217421.85846016
2 11.98352277  -215987.47192743
2  9.67744501     1647.53099822
2 17.58068730    -5124.79596488
2 17.50925880     -963.56912390
2 19.80724162     3071.81011765

6
2 15.48559732   189560.54470794
2 15.42430413  -181115.65838446
2 17.81980355    -1937.67548293
2 17.69074392    -2335.92086442
2 17.98867265    -8634.52846732
2 19.82460345     4504.58524733

6
2 10.91448054    -5224.34215851
2 14.69969344    -3653.65459704
2 11.52370333     8159.25189768
2 19.81153965    -2763.94279097
2 18.01979820     6020.80732635
2 14.46480052    -2560.14492979
O 0
QMC 2 2

6
1 10.27717748       6.00000000
2 15.99566749    1232.50197768
2 10.46901775    -696.47008301
2 14.63848010   -2654.22657081
2 12.57591181    2101.67732548
3  7.77739102      61.66306486

6
2 12.39426073 -656683.37638839
2 12.38126171  657858.57667068
2  8.57671033     511.50098405
2  9.89256508   -2579.54665641
2 28.05641604     -57.68129584
2 17.24753607     970.30940152

6
2 14.78918914 -363027.24258186
2 14.82014018  361852.52314043
2 22.89622221   -1300.20069256
2  8.51331893    -181.96869573
2 11.48609758    2194.87589959
2 27.22017524     451.19906206

