%MEM=80GB
%CPU=0-15
%RWF=/scratch/04843/aannabe/gaussian/
%Int=/scratch/04843/aannabe/gaussian/
%D2E=/scratch/04843/aannabe/gaussian/
%NoSave
%CHK=TiO

!Make sure DKHSO is turned off
#P ROCCSD(T)=(maxcyc=150, Full, SaveAmplitudes, ReadAmplitudes)/Gen 5d 7f SCF=(maxcycles=300) Integral(NoXCTest) MaxDisk=500GB Pop=Regular Pseudo=Read Guess=Read !IOp(5/15=2) 

TiO

0 3
Ti 0.0 0.0 0.0
O  0.0 0.0 1.60

Ti     0 
S   1   1.00
 9317034.0000000             1.000       
S   1   1.00
 1394971.0000000             1.000       
S   1   1.00
 317453.1000000              1.000       
S   1   1.00
  89921.0000000              1.000       
S   1   1.00
  29338.1600000              1.000       
S   1   1.00
  10592.6600000              1.000       
S   1   1.00
   4132.0560000              1.000       
S   1   1.00
   1714.2350000              1.000       
S   1   1.00
    747.9151000              1.000       
S   1   1.00
    340.1991000              1.000       
S   1   1.00
    160.2060000              1.000       
S   1   1.00
     77.5885100              1.000       
S   1   1.00
     38.0448900              1.000       
S   1   1.00
     17.3536200              1.000       
S   1   1.00
      8.6420620              1.000       
S   1   1.00
      4.3044040              1.000       
S   1   1.00
      1.9377180              1.000       
S   1   1.00
      0.9365940              1.000       
S   1   1.00
      0.4326240              1.000       
S   1   1.00
      0.1073520              1.000       
S   1   1.00
      0.0520340              1.000       
S   1   1.00
      0.0240380              1.0000000        
S   1   1.00
      4.0519000              1.0000000        
S   1   1.00
      1.0592000              1.0000000        
S   1   1.00
      0.0111000              1.0000000        
P   1   1.00
  25537.3300000              1.000       
P   1   1.00
   6042.2430000              1.000       
P   1   1.00
   1962.6530000              1.000       
P   1   1.00
    751.7338000              1.000       
P   1   1.00
    319.8833000              1.000       
P   1   1.00
    146.4300000              1.000       
P   1   1.00
     70.7486100              1.000       
P   1   1.00
     35.5908800              1.000       
P   1   1.00
     18.3689300              1.000       
P   1   1.00
      9.6586550              1.000       
P   1   1.00
      5.1367300              1.000       
P   1   1.00
      2.6988720              1.000       
P   1   1.00
      1.3897030              1.000       
P   1   1.00
      0.7031630              1.000       
P   1   1.00
      0.3441230              1.000       
P   1   1.00
      0.1413750              1.000       
P   1   1.00
      0.0607910              1.000       
P   1   1.00
      0.0258310              1.0000000        
P   1   1.00
      4.8241000              1.0000000        
P   1   1.00
      1.2211000              1.0000000        
P   1   1.00
      0.0109800              1.0000000        
D   1   1.00
    199.9720000              1.000       
D   1   1.00
     59.1869000              1.000       
D   1   1.00
     22.6013000              1.000       
D   1   1.00
      9.5739100              1.000       
D   1   1.00
      4.3177100              1.000       
D   1   1.00
      2.0237300              1.000       
D   1   1.00
      0.9471690              1.000       
D   1   1.00
      0.4338770              1.000       
D   1   1.00
      0.1921260              1.000       
D   1   1.00
      0.0814040              1.000       
D   1   1.00
      0.0322330              1.0000000        
D   1   1.00
      2.7829000              1.0000000        
D   1   1.00
      1.3657000              1.0000000        
D   1   1.00
      0.0127600              1.0000000        
F   1   1.00
      3.7192000              1.0000000        
F   1   1.00
      1.4838000              1.0000000        
F   1   1.00
      0.5920000              1.0000000        
F   1   1.00
      0.1796000              1.0000000        
F   1   1.00
      0.0544900              1.0000000        
G   1   1.00
      3.2099000              1.0000000        
G   1   1.00
      1.2652000              1.0000000        
G   1   1.00
      0.3947000              1.0000000        
G   1   1.00
      0.1231300              1.0000000        
H   1   1.00
      2.7676000              1.0000000        
H   1   1.00
      0.8524000              1.0000000        
H   1   1.00
      0.2625300              1.0000000        
****
O     0 
S   1   1.00
  61420.0000000              1.000       
S   1   1.00
   9199.0000000              1.000       
S   1   1.00
   2091.0000000              1.000       
S   1   1.00
    590.9000000              1.000       
S   1   1.00
    192.3000000              1.000       
S   1   1.00
     69.3200000              1.000       
S   1   1.00
     26.9700000              1.000       
S   1   1.00
     11.1000000              1.000       
S   1   1.00
      4.6820000              1.000       
S   1   1.00
      1.4280000              1.0000000        
S   1   1.00
      0.5547000              1.0000000        
S   1   1.00
      0.2067000              1.0000000        
S   1   1.00
     12.9740000              1.0000000        
S   1   1.00
     34.9000000              1.0000000        
S   1   1.00
     93.8810000              1.0000000        
S   1   1.00
      0.0695900              1.0000000        
P   1   1.00
     63.4200000              1.000        
P   1   1.00
     14.6600000              1.000        
P   1   1.00
      4.4590000              1.000        
P   1   1.00
      1.5310000              1.0000000        
P   1   1.00
      0.5302000              1.0000000        
P   1   1.00
      0.1750000              1.0000000        
P   1   1.00
     14.4750000              1.0000000        
P   1   1.00
     42.7300000              1.0000000        
P   1   1.00
    126.1400000              1.0000000        
P   1   1.00
      0.0534800              1.0000000        
D   1   1.00
      3.7750000              1.0000000        
D   1   1.00
      1.3000000              1.0000000        
D   1   1.00
      0.4440000              1.0000000        
D   1   1.00
     14.9270000              1.0000000        
D   1   1.00
     57.5440000              1.0000000        
D   1   1.00
      0.1540000              1.0000000        
F   1   1.00
      2.6660000              1.0000000        
F   1   1.00
      0.8590000              1.0000000        
F   1   1.00
     26.4830000              1.0000000        
F   1   1.00
      0.3240000              1.0000000        
G   1   1.00
      1.8460000              1.0000000        
G   1   1.00
      0.7140000              1.0000000        
****

Ti 0
QMC 3 10

6
1    8.52499277       12.00000000 
2   15.24334130     2048.39512837 
2    9.82605516     -812.71625987 
2   13.73638629    -6663.62886396 
2   12.65450510     5396.93874773 
3    7.54790686      102.29991323 

6
2    6.07854372    -5355.67455847 
2    6.60870356     4802.76911085 
2    5.40803832     1304.66429039 
2   10.43037595    -1133.61681175 
2   18.40796253     -258.77562194 
2   15.38428800      672.53886697 

6
2    9.60319864    56981.17339652 
2    9.66270511   -57002.97844363 
2   15.06515908     1335.72576887 
2   16.36599976     -813.49634683 
2    7.86420177     -720.45341501 
2   10.25452653      239.69852194 

6
2   10.56650824    -4262.72074057 
2    2.71368379       -1.34753473 
2    9.33780917     1569.82864567 
2   31.60560687       -0.45387550 
2   12.28030141     5034.44351544 
2   13.36770170    -2350.67846378 
O 0
QMC 2 2

6
1   10.27717748        6.00000000 
2   15.99566749     1232.50197768 
2   10.46901775     -696.47008301 
2   14.63848010    -2654.22657081 
2   12.57591181     2101.67732548 
3    7.77739102       61.66306486 

6
2   12.39426073  -656683.37638839 
2   12.38126171   657858.57667068 
2    8.57671033      511.50098405 
2    9.89256508    -2579.54665641 
2   28.05641604      -57.68129584 
2   17.24753607      970.30940152 

6
2   14.78918914  -363027.24258186 
2   14.82014018   361852.52314043 
2   22.89622221    -1300.20069256 
2    8.51331893     -181.96869573 
2   11.48609758     2194.87589959 
2   27.22017524      451.19906206 

