%mem=80GB
%nproc=16
%chk=H
!%rwf=wfn

!Make sure DKHSO is turned on, and grid is the same as in Molecule
#P ROHF/Gen 5d 7f SCF=(maxcycles=500) Integral(Grid=525302, DKHSO) MaxDisk=5000GB Pop=Full !Guess=Read

H

0 2
H 0.0 0.0 0.0

H     0 
S   1   1.00
    402.0000000              1.000        
S   1   1.00
     60.2400000              1.000        
S   1   1.00
     13.7300000              1.000        
S   1   1.00
      3.9050000              1.000        
S   1   1.00
      1.2830000              1.0000000        
S   1   1.00
      0.4655000              1.0000000        
S   1   1.00
      0.1811000              1.0000000        
S   1   1.00
      0.0727900              1.0000000        
S   1   1.00
      0.0207000              1.0000000        
P   1   1.00
      4.5160000              1.0000000        
P   1   1.00
      1.7120000              1.0000000        
P   1   1.00
      0.6490000              1.0000000        
P   1   1.00
      0.2460000              1.0000000        
P   1   1.00
      0.0744000              1.0000000        
D   1   1.00
      2.9500000              1.0000000        
D   1   1.00
      1.2060000              1.0000000        
D   1   1.00
      0.4930000              1.0000000        
D   1   1.00
      0.1560000              1.0000000        
F   1   1.00
      2.5060000              1.0000000        
F   1   1.00
      0.8750000              1.0000000        
F   1   1.00
      0.2740000              1.0000000        
G   1   1.00
      2.3580000              1.0000000        
G   1   1.00
      0.5430000              1.0000000        
****

