%mem=80GB
%cpu=0-31
%chk=qz.chk
%rwf=/scratch/04843/gwang18/znh/

#P ROCCSD(T)=(MaxCyc=150, Full)/Gen SCF=(maxcycle=400, vshift=200) Pseudo=Read Integral(NoXCTest) Pop=Regular MaxDisk=500GB Guess=Read IOp(5/15=2)

ZnH

0 2
Zn 0.0 0.0 0.0
H 0.0 0.0 1.3

Zn     0 
S   1   1.00
      0.1785293E+08          1.000000    
S   1   1.00
 2673038.0000000             1.000000    
S   1   1.00
 608324.4000000              1.000000    
S   1   1.00
 172317.6000000              1.000000    
S   1   1.00
  56222.6900000              1.000000    
S   1   1.00
  20299.8500000              1.000000    
S   1   1.00
   7918.8710000              1.000000    
S   1   1.00
   3285.3400000              1.000000    
S   1   1.00
   1433.5240000              1.000000    
S   1   1.00
    652.2889000              1.000000    
S   1   1.00
    307.4360000              1.000000    
S   1   1.00
    149.1466000              1.000000    
S   1   1.00
     73.4510800              1.000000    
S   1   1.00
     33.9256200              1.000000    
S   1   1.00
     17.1894700              1.000000    
S   1   1.00
      8.6665950              1.000000    
S   1   1.00
      3.9725050              1.000000    
S   1   1.00
      1.8946650              1.000000    
S   1   1.00
      0.8593850              1.000000    
S   1   1.00
      0.1952560              1.000000    
S   1   1.00
      0.0858540              1.000000    
S   1   1.00
      0.0367810              1.0000000        
S   1   1.00
      8.3276000              1.0000000        
S   1   1.00
      3.4194000              1.0000000        
S   1   1.00
      0.0157600              1.0000000        
P   1   1.00
  52867.9300000              1.000000       
P   1   1.00
  12511.7900000              1.000000       
P   1   1.00
   4065.2860000              1.000000       
P   1   1.00
   1557.5950000              1.000000       
P   1   1.00
    663.2892000              1.000000       
P   1   1.00
    304.1561000              1.000000       
P   1   1.00
    147.3680000              1.000000       
P   1   1.00
     74.4546900              1.000000       
P   1   1.00
     38.7149300              1.000000       
P   1   1.00
     20.5702200              1.000000       
P   1   1.00
     11.0542500              1.000000       
P   1   1.00
      5.8746610              1.000000       
P   1   1.00
      3.0529360              1.000000       
P   1   1.00
      1.5472250              1.000000       
P   1   1.00
      0.7541510              1.000000       
P   1   1.00
      0.2653490              1.000000       
P   1   1.00
      0.1020670              1.000000       
P   1   1.00
      0.0387550              1.0000000        
P   1   1.00
     12.5357000              1.0000000        
P   1   1.00
      3.4227000              1.0000000        
P   1   1.00
      0.0147200              1.0000000        
D   1   1.00
    639.7806000              1.000000       
D   1   1.00
    192.6742000              1.000000       
D   1   1.00
     74.8436800              1.000000       
D   1   1.00
     32.8604800              1.000000       
D   1   1.00
     15.3935300              1.000000       
D   1   1.00
      7.5255120              1.000000       
D   1   1.00
      3.7154290              1.000000       
D   1   1.00
      1.8064590              1.000000       
D   1   1.00
      0.8529730              1.000000       
D   1   1.00
      0.3847800              1.000000       
D   1   1.00
      0.1593370              1.0000000        
D   1   1.00
      9.2094000              1.0000000        
D   1   1.00
      5.2262000              1.0000000        
D   1   1.00
      0.0659800              1.0000000        
F   1   1.00
     13.2355000              1.0000000        
F   1   1.00
      5.6706000              1.0000000        
F   1   1.00
      2.4295000              1.0000000        
F   1   1.00
      0.8530000              1.0000000        
F   1   1.00
      0.2994900              1.0000000        
G   1   1.00
     10.7902000              1.0000000        
G   1   1.00
      4.9368000              1.0000000        
G   1   1.00
      2.0693000              1.0000000        
G   1   1.00
      0.8673600              1.0000000        
H   1   1.00
      9.6086000              1.0000000        
H   1   1.00
      4.4136000              1.0000000        
H   1   1.00
      2.0273400              1.0000000        
****
H     0 
S   1   1.00
     82.6400000              1.000000        
S   1   1.00
     12.4100000              1.000000        
S   1   1.00
      2.8240000              1.000000        
S   1   1.00
      0.7977000              1.0000000        
S   1   1.00
      0.2581000              1.0000000        
S   1   1.00
      0.0898900              1.0000000        
S   1   1.00
      0.0236300              1.0000000        
P   1   1.00
      2.2920000              1.0000000        
P   1   1.00
      0.8380000              1.0000000        
P   1   1.00
      0.2920000              1.0000000        
P   1   1.00
      0.0848000              1.0000000        
D   1   1.00
      2.0620000              1.0000000        
D   1   1.00
      0.6620000              1.0000000        
D   1   1.00
      0.1900000              1.0000000        
F   1   1.00
      1.3970000              1.0000000        
F   1   1.00
      0.3600000              1.0000000        
****

Zn 0
GM 2 10

4
1 35.80797616175546  20.0
3 34.53646083704226  716.1595232351092000
2 28.62830178269908  -204.68393323548855
2 7.96239682559958  0.76026614461740

2
2 14.63498691533719  95.87640437388212
2 35.02141356672601  431.70804302700361

2
2 14.57429304153574  74.01270048941292
2 42.22979234994646  313.57770563939351
H 0
QMC 1 0

3
2   21.77696655044365      -10.85192405303825
1   21.24359508259891        1.00000000000000
3   21.24359508259891       21.24359508259891

1
2    1.               0.

