%mem=160GB
%cpu=0-31
%chk=tz.chk
%rwf=/scratch/04843/gwang18/cuo/

#P ROCCSD(T)=(MaxCyc=150, Window=(7,0))/Gen SCF=(maxcycle=400) Integral(DKHSO, NoXCTest) Pop=Regular MaxDisk=500GB Guess=Read IOp(5/15=2)

CuO

0 2
Cu 0.0 0.0 0.0
O 0.0 0.0 1.8

Cu     0 
S   1   1.00
 5430321.0000000             1.000000    
S   1   1.00
 813166.5000000              1.000000    
S   1   1.00
 185054.4000000              1.000000    
S   1   1.00
  52414.6600000              1.000000    
S   1   1.00
  17098.6800000              1.000000    
S   1   1.00
   6171.9940000              1.000000    
S   1   1.00
   2406.4810000              1.000000    
S   1   1.00
    997.2584000              1.000000    
S   1   1.00
    433.9289000              1.000000    
S   1   1.00
    196.2869000              1.000000    
S   1   1.00
     91.0428000              1.000000    
S   1   1.00
     41.3842500              1.000000    
S   1   1.00
     19.9327800              1.000000    
S   1   1.00
      9.5818910              1.000000    
S   1   1.00
      4.2345160              1.000000    
S   1   1.00
      1.9858140              1.000000    
S   1   1.00
      0.8670830              1.000000    
S   1   1.00
      0.1813390              1.000000    
S   1   1.00
      0.0836570              1.000000    
S   1   1.00
      0.0362670              1.0000000        
S   1   1.00
      6.3233000              1.0000000        
S   1   1.00
      1.6459000              1.0000000        
S   1   1.00
      0.0157200              1.0000000        
P   1   1.00
  22760.5700000              1.000000       
P   1   1.00
   5387.6790000              1.000000       
P   1   1.00
   1749.9450000              1.000000       
P   1   1.00
    669.6653000              1.000000       
P   1   1.00
    284.1948000              1.000000       
P   1   1.00
    129.6077000              1.000000       
P   1   1.00
     62.2541500              1.000000       
P   1   1.00
     30.9296400              1.000000       
P   1   1.00
     15.7582700              1.000000       
P   1   1.00
      8.0942110              1.000000       
P   1   1.00
      4.0469210              1.000000       
P   1   1.00
      1.9678690              1.000000       
P   1   1.00
      0.9252950              1.000000       
P   1   1.00
      0.3529920              1.000000       
P   1   1.00
      0.1273070              1.000000       
P   1   1.00
      0.0443560              1.0000000        
P   1   1.00
      9.6845000              1.0000000        
P   1   1.00
      2.2065000              1.0000000        
P   1   1.00
      0.0154500              1.0000000        
D   1   1.00
    173.8970000              1.000000       
D   1   1.00
     51.8869000              1.000000       
D   1   1.00
     19.3419000              1.000000       
D   1   1.00
      7.9757200              1.000000       
D   1   1.00
      3.3982300              1.000000       
D   1   1.00
      1.4093200              1.000000       
D   1   1.00
      0.5488580              1.000000       
D   1   1.00
      0.1901990              1.0000000        
D   1   1.00
      6.9242000              1.0000000        
D   1   1.00
      3.3410000              1.0000000        
D   1   1.00
      0.0659100              1.0000000        
F   1   1.00
      9.2215000              1.0000000        
F   1   1.00
      3.5468000              1.0000000        
F   1   1.00
      1.2797000              1.0000000        
F   1   1.00
      0.4617200              1.0000000        
G   1   1.00
      8.3127000              1.0000000        
G   1   1.00
      3.4835000              1.0000000        
G   1   1.00
      1.4597900              1.0000000        
****
O     0 
S   1   1.00
  15330.0000000              1.000000       
S   1   1.00
   2299.0000000              1.000000       
S   1   1.00
    522.4000000              1.000000       
S   1   1.00
    147.3000000              1.000000       
S   1   1.00
     47.5500000              1.000000       
S   1   1.00
     16.7600000              1.000000       
S   1   1.00
      6.2070000              1.000000       
S   1   1.00
      0.6882000              1.000000       
S   1   1.00
      1.7520000              1.0000000        
S   1   1.00
      0.2384000              1.0000000        
S   1   1.00
      7.8450000              1.0000000        
S   1   1.00
     21.0320000              1.0000000        
S   1   1.00
      0.0737600              1.0000000        
P   1   1.00
     34.4600000              1.000000        
P   1   1.00
      7.7490000              1.000000        
P   1   1.00
      2.2800000              1.000000        
P   1   1.00
      0.7156000              1.0000000        
P   1   1.00
      0.2140000              1.0000000        
P   1   1.00
     15.1590000              1.0000000        
P   1   1.00
     57.4370000              1.0000000        
P   1   1.00
      0.0597400              1.0000000        
D   1   1.00
      2.3140000              1.0000000        
D   1   1.00
      0.6450000              1.0000000        
D   1   1.00
     15.8580000              1.0000000        
D   1   1.00
      0.2140000              1.0000000        
F   1   1.00
      1.4280000              1.0000000        
F   1   1.00
      0.5000000              1.0000000        
****

