%mem=160GB
%cpu=0-31
%chk=5z.chk
%rwf=/scratch/04843/gwang18/nio/

#P ROCCSD(T)=(MaxCyc=150, Full)/Gen SCF=(maxcycle=400, vshift=200) Pseudo=Read Integral(NoXCTest) Pop=Regular MaxDisk=500GB Guess=Read !IOp(5/15=2)

NiO

0 3
Ni 0.0 0.0 0.0
O 0.0 0.0 1.3

Ni     0 
S   1   1.00
      1.68793E+08            1.000000    
S   1   1.00
      3.01369E+07            1.000000    
S   1   1.00
      6.73075E+06            1.000000    
S   1   1.00
      1.80337E+06            1.000000    
S   1   1.00
 559438.0000000              1.000000    
S   1   1.00
 195064.0000000              1.000000    
S   1   1.00
  74600.7000000              1.000000    
S   1   1.00
  30681.7000000              1.000000    
S   1   1.00
  13360.3000000              1.000000    
S   1   1.00
   6086.1600000              1.000000    
S   1   1.00
   2874.6200000              1.000000    
S   1   1.00
   1398.7200000              1.000000    
S   1   1.00
    697.9810000              1.000000    
S   1   1.00
    356.1100000              1.000000    
S   1   1.00
    185.3460000              1.000000    
S   1   1.00
     98.2221000              1.000000    
S   1   1.00
     52.8834000              1.000000    
S   1   1.00
     28.8424000              1.000000    
S   1   1.00
     15.8664000              1.000000    
S   1   1.00
      8.7493300              1.000000    
S   1   1.00
      4.7948200              1.000000    
S   1   1.00
      2.5812400              1.000000    
S   1   1.00
      1.3445000              1.000000    
S   1   1.00
      0.6723740              1.000000    
S   1   1.00
      0.2246400              1.000000    
S   1   1.00
      0.1201920              1.000000    
S   1   1.00
      0.0581540              1.000000    
S   1   1.00
      0.0277230              1.0000000        
S   1   1.00
      8.2682000              1.0000000        
S   1   1.00
      2.9925000              1.0000000        
S   1   1.00
      0.0132200              1.0000000        
P   1   1.00
 104158.0000000              1.000000       
P   1   1.00
  25289.1000000              1.000000       
P   1   1.00
   7974.0600000              1.000000       
P   1   1.00
   3013.0100000              1.000000       
P   1   1.00
   1286.4100000              1.000000       
P   1   1.00
    595.8550000              1.000000       
P   1   1.00
    291.6560000              1.000000       
P   1   1.00
    148.5440000              1.000000       
P   1   1.00
     78.0737000              1.000000       
P   1   1.00
     42.1478000              1.000000       
P   1   1.00
     23.2599000              1.000000       
P   1   1.00
     13.0121000              1.000000       
P   1   1.00
      7.2639900              1.000000       
P   1   1.00
      3.9735700              1.000000       
P   1   1.00
      2.1215600              1.000000       
P   1   1.00
      1.1051500              1.000000       
P   1   1.00
      0.5499500              1.000000       
P   1   1.00
      0.2107400              1.000000       
P   1   1.00
      0.0847310              1.000000       
P   1   1.00
      0.0339020              1.0000000        
P   1   1.00
     12.4234000              1.0000000        
P   1   1.00
      4.0755000              1.0000000        
P   1   1.00
      0.0135600              1.0000000        
D   1   1.00
    568.8665000              1.000000       
D   1   1.00
    171.2501000              1.000000       
D   1   1.00
     66.4919500              1.000000       
D   1   1.00
     29.2054100              1.000000       
D   1   1.00
     13.6784800              1.000000       
D   1   1.00
      6.6978800              1.000000       
D   1   1.00
      3.3258500              1.000000       
D   1   1.00
      1.6314800              1.000000       
D   1   1.00
      0.7790140              1.000000       
D   1   1.00
      0.3575460              1.000000       
D   1   1.00
      0.1551630              1.000000       
D   1   1.00
      0.0614020              1.0000000        
D   1   1.00
      8.9439000              1.0000000        
D   1   1.00
      5.5224000              1.0000000        
D   1   1.00
      0.0243000              1.0000000        
F   1   1.00
     14.2413000              1.0000000        
F   1   1.00
      6.3783000              1.0000000        
F   1   1.00
      2.8566000              1.0000000        
F   1   1.00
      1.2794000              1.0000000        
F   1   1.00
      0.4437000              1.0000000        
F   1   1.00
      0.1538800              1.0000000        
G   1   1.00
     10.2136000              1.0000000        
G   1   1.00
      5.0730000              1.0000000        
G   1   1.00
      2.5197000              1.0000000        
G   1   1.00
      0.9633000              1.0000000        
G   1   1.00
      0.3682800              1.0000000        
H   1   1.00
      8.9661000              1.0000000        
H   1   1.00
      4.3556000              1.0000000        
H   1   1.00
      1.8526000              1.0000000        
H   1   1.00
      0.7879800              1.0000000        
I   1   1.00
      9.0151000              1.0000000        
I   1   1.00
      4.3549000              1.0000000        
I   1   1.00
      2.1037100              1.0000000        
****
O     0 
S   1   1.00
164200.0000000       1.000000
S   1   1.00
24590.0000000        1.000000
S   1   1.00
5592.0000000         1.000000
S   1   1.00
1582.0000000         1.000000
S   1   1.00
516.1000000          1.000000
S   1   1.00
73.9300000           1.000000
S   1   1.00
31.2200000           1.000000
S   1   1.00
13.8100000           1.000000
S   1   1.00
6.2560000            1.000000
S   1   1.00
2.7760000            1.0000000
S   1   1.00
1.1380000            1.0000000
S   1   1.00
0.4600000            1.0000000
S   1   1.00
0.1829000            1.0000000
S   1   1.00
15.6450000           1.0000000
S   1   1.00
35.8740000           1.0000000
S   1   1.00
82.2590000           1.0000000
S   1   1.00
188.6200000          1.0000000
S   1   1.00
0.0655000            1.0000000
P   1   1.00
195.5000000          1.000000
P   1   1.00
46.1600000           1.000000
P   1   1.00
14.5800000           1.000000
P   1   1.00
5.2960000            1.000000
P   1   1.00
2.0940000            1.0000000
P   1   1.00
0.8471000            1.0000000
P   1   1.00
0.3368000            1.0000000
P   1   1.00
0.1285000            1.0000000
P   1   1.00
14.0490000           1.0000000
P   1   1.00
35.4460000           1.0000000
P   1   1.00
89.4290000           1.0000000
P   1   1.00
225.6300000          1.0000000
P   1   1.00
0.0446000            1.0000000
D   1   1.00
5.8790000            1.0000000
D   1   1.00
2.3070000            1.0000000
D   1   1.00
0.9050000            1.0000000
D   1   1.00
0.3550000            1.0000000
D   1   1.00
16.7030000           1.0000000
D   1   1.00
47.3200000           1.0000000
D   1   1.00
134.0560000          1.0000000
D   1   1.00
0.1310000            1.0000000
F   1   1.00
4.0160000            1.0000000
F   1   1.00
1.5540000            1.0000000
F   1   1.00
0.6010000            1.0000000
F   1   1.00
17.3540000           1.0000000
F   1   1.00
65.5460000           1.0000000
F   1   1.00
0.2370000            1.0000000
G   1   1.00
3.3500000            1.0000000
G   1   1.00
1.1890000            1.0000000
G   1   1.00
48.5780000           1.0000000
G   1   1.00
0.5170000            1.0000000
H   1   1.00
2.3190000            1.0000000
H   1   1.00
1.0240000            1.0000000
****

Ni 0
GM 2 10

4
1 37.92402538406299  18.0
3 23.91559743951350  682.6324569131338200
2 19.97959496598729  -173.86371303207716
2 3.59972497574288  0.36627055523555

2
2 13.55641859374987  92.06283029831025
2 27.83578932583988  332.58121624323661

2
2 6.49273676990515  7.52030073420510
2 23.68135451618073  266.09985511247788
O 0
QMC 1 2

3
1 12.3099743608243  6.00000000000000
3 14.7696229283522  73.8598461649458
2 13.7141954216007 -47.8760050413118

1
2 13.6551200129796  85.8640652580159

