%mem=64GB
%cpu=0-31
%chk=ScH
!%rwf=wfn

!Make sure DKHSO is turned off, and grid is the same as AE case
#P ROCCSD(T)=(maxcyc=150, Full)/Gen 5d 7f SCF=(maxcycles=300) Integral(NoXCTest) MaxDisk=500GB Pop=Regular Pseudo=Read Guess=Read

ScH

0 1
Sc 0.0 0.0 0.0
H  0.0 0.0 1.00

Sc     0 
S   1   1.00
      1.19495E+08            1.000    
S   1   1.00
      2.14992E+07            1.000    
S   1   1.00
      4.80703E+06            1.000    
S   1   1.00
      1.28440E+06            1.000    
S   1   1.00
 396595.0000000              1.000    
S   1   1.00
 137575.0000000              1.000    
S   1   1.00
  52366.8000000              1.000    
S   1   1.00
  21454.9000000              1.000    
S   1   1.00
   9316.0600000              1.000    
S   1   1.00
   4235.4000000              1.000    
S   1   1.00
   1997.4400000              1.000    
S   1   1.00
    970.4300000              1.000    
S   1   1.00
    483.2710000              1.000    
S   1   1.00
    245.8060000              1.000    
S   1   1.00
    127.3600000              1.000    
S   1   1.00
     67.0788000              1.000    
S   1   1.00
     35.8371000              1.000    
S   1   1.00
     19.3713000              1.000    
S   1   1.00
     10.5571000              1.000    
S   1   1.00
      5.7724900              1.000    
S   1   1.00
      3.1454000              1.000    
S   1   1.00
      1.6924900              1.000    
S   1   1.00
      0.8886490              1.000    
S   1   1.00
      0.4710930              1.000    
S   1   1.00
      0.2492860              1.000    
S   1   1.00
      0.0999880              1.000    
S   1   1.00
      0.0463690              1.000    
S   1   1.00
      0.0216060              1.0000000        
S   1   1.00
      4.3955000              1.0000000        
S   1   1.00
      1.1564000              1.0000000        
S   1   1.00
      0.0100700              1.0000000        
P   1   1.00
  55070.5000000              1.000       
P   1   1.00
  13741.7000000              1.000       
P   1   1.00
   4365.4000000              1.000       
P   1   1.00
   1642.2600000              1.000       
P   1   1.00
    694.0660000              1.000       
P   1   1.00
    317.7420000              1.000       
P   1   1.00
    153.8990000              1.000       
P   1   1.00
     77.7665000              1.000       
P   1   1.00
     40.6736000              1.000       
P   1   1.00
     21.9061000              1.000       
P   1   1.00
     12.0795000              1.000       
P   1   1.00
      6.7534900              1.000       
P   1   1.00
      3.7632100              1.000       
P   1   1.00
      2.0497300              1.000       
P   1   1.00
      1.0864500              1.000       
P   1   1.00
      0.5640870              1.000       
P   1   1.00
      0.2810200              1.000       
P   1   1.00
      0.1214320              1.000       
P   1   1.00
      0.0533450              1.000       
P   1   1.00
      0.0231430              1.0000000        
P   1   1.00
      5.1300000              1.0000000        
P   1   1.00
      1.2315000              1.0000000        
P   1   1.00
      0.0100400              1.0000000        
D   1   1.00
    206.8490000              1.000       
D   1   1.00
     60.9977000              1.000       
D   1   1.00
     23.3085000              1.000       
D   1   1.00
      9.9288100              1.000       
D   1   1.00
      4.4867000              1.000       
D   1   1.00
      2.1263200              1.000       
D   1   1.00
      1.0200800              1.000       
D   1   1.00
      0.4853730              1.000       
D   1   1.00
      0.2271980              1.000       
D   1   1.00
      0.1042040              1.000       
D   1   1.00
      0.0468350              1.000       
D   1   1.00
      0.0202590              1.0000000        
D   1   1.00
      2.6491000              1.0000000        
D   1   1.00
      1.4102000              1.0000000        
D   1   1.00
      0.0087600              1.0000000        
F   1   1.00
      3.5989000              1.0000000        
F   1   1.00
      1.5145000              1.0000000        
F   1   1.00
      0.6373000              1.0000000        
F   1   1.00
      0.2682000              1.0000000        
F   1   1.00
      0.0809000              1.0000000        
F   1   1.00
      0.0244000              1.0000000        
G   1   1.00
      3.1618000              1.0000000        
G   1   1.00
      1.3736000              1.0000000        
G   1   1.00
      0.5968000              1.0000000        
G   1   1.00
      0.1711000              1.0000000        
G   1   1.00
      0.0490500              1.0000000        
H   1   1.00
      2.9441000              1.0000000        
H   1   1.00
      1.1635000              1.0000000        
H   1   1.00
      0.3290000              1.0000000        
H   1   1.00
      0.0930300              1.0000000        
I   1   1.00
      3.1150000              1.0000000        
I   1   1.00
      1.1682000              1.0000000        
I   1   1.00
      0.4381000              1.0000000        
****
H     0 
S   1   1.00
    402.0000000              1.000        
S   1   1.00
     60.2400000              1.000        
S   1   1.00
     13.7300000              1.000        
S   1   1.00
      3.9050000              1.000        
S   1   1.00
      1.2830000              1.0000000        
S   1   1.00
      0.4655000              1.0000000        
S   1   1.00
      0.1811000              1.0000000        
S   1   1.00
      0.0727900              1.0000000        
S   1   1.00
      0.0207000              1.0000000        
P   1   1.00
      4.5160000              1.0000000        
P   1   1.00
      1.7120000              1.0000000        
P   1   1.00
      0.6490000              1.0000000        
P   1   1.00
      0.2460000              1.0000000        
P   1   1.00
      0.0744000              1.0000000        
D   1   1.00
      2.9500000              1.0000000        
D   1   1.00
      1.2060000              1.0000000        
D   1   1.00
      0.4930000              1.0000000        
D   1   1.00
      0.1560000              1.0000000        
F   1   1.00
      2.5060000              1.0000000        
F   1   1.00
      0.8750000              1.0000000        
F   1   1.00
      0.2740000              1.0000000        
G   1   1.00
      2.3580000              1.0000000        
G   1   1.00
      0.5430000              1.0000000        
****

Sc 0
QMC 2 10

4
1 16.0239438834255  11.000
3 14.0864740368760  176.263382717680
2 11.9398512180529 -83.6814959989029
2 3.69440111537148  0.43282764732009

2
2 11.4946654139250  153.965301756312
2 5.01031394189373  14.9367565765582

2
2 11.4512673043638  97.2172569045336
2 4.76798446255521  10.8170401843697
H 0
QMC 1 0

3
2   21.77696655044365   -10.85192405303825
1   21.24359508259891   1.00000000000000
3   21.24359508259891   21.24359508259891

1
2   1.0   0.0

