%mem=80GB
%chk=qz.chk
%cpu=0-31

#P ROCCSD(T)=(MaxCyc=150, Full)/Gen SCF=(maxcycle=400) Pseudo=Read Integral(NoXCTest) Pop=Regular MaxDisk=500GB Guess=Read IOp(5/15=2)

Ni

0 3
Ni 0.0 0.0 0.0

Ni     0 
S   1   1.00
 15503020.0000000            1.000000    
S   1   1.00
 2321071.0000000             1.000000    
S   1   1.00
 528180.2000000              1.000000    
S   1   1.00
 149604.0000000              1.000000    
S   1   1.00
  48809.0700000              1.000000    
S   1   1.00
  17622.3900000              1.000000    
S   1   1.00
   6874.2010000              1.000000    
S   1   1.00
   2851.8570000              1.000000    
S   1   1.00
   1244.3340000              1.000000    
S   1   1.00
    566.1547000              1.000000    
S   1   1.00
    266.7873000              1.000000    
S   1   1.00
    129.3752000              1.000000    
S   1   1.00
     63.6516100              1.000000    
S   1   1.00
     29.3330200              1.000000    
S   1   1.00
     14.8221200              1.000000    
S   1   1.00
      7.4605130              1.000000    
S   1   1.00
      3.4135760              1.000000    
S   1   1.00
      1.6328840              1.000000    
S   1   1.00
      0.7435790              1.000000    
S   1   1.00
      0.1725920              1.000000    
S   1   1.00
      0.0774200              1.000000    
S   1   1.00
      0.0337010              1.0000000        
S   1   1.00
      6.5001000              1.0000000        
S   1   1.00
      1.7599000              1.0000000        
S   1   1.00
      0.0146700              1.0000000        
P   1   1.00
  45066.6200000              1.000000       
P   1   1.00
  10662.6400000              1.000000       
P   1   1.00
   3463.4310000              1.000000       
P   1   1.00
   1326.6240000              1.000000       
P   1   1.00
    564.7414000              1.000000       
P   1   1.00
    258.8288000              1.000000       
P   1   1.00
    125.3115000              1.000000       
P   1   1.00
     63.2423300              1.000000       
P   1   1.00
     32.8240600              1.000000       
P   1   1.00
     17.3969200              1.000000       
P   1   1.00
      9.3243940              1.000000       
P   1   1.00
      4.9388390              1.000000       
P   1   1.00
      2.5620250              1.000000       
P   1   1.00
      1.2992940              1.000000       
P   1   1.00
      0.6346780              1.000000       
P   1   1.00
      0.2322620              1.000000       
P   1   1.00
      0.0915460              1.000000       
P   1   1.00
      0.0356430              1.0000000        
P   1   1.00
     10.4165000              1.0000000        
P   1   1.00
      2.9093000              1.0000000        
P   1   1.00
      0.0138800              1.0000000        
D   1   1.00
    414.3427000              1.000000       
D   1   1.00
    124.3926000              1.000000       
D   1   1.00
     48.1154000              1.000000       
D   1   1.00
     20.8420000              1.000000       
D   1   1.00
      9.6221000              1.000000       
D   1   1.00
      4.6034000              1.000000       
D   1   1.00
      2.1963000              1.000000       
D   1   1.00
      1.0206000              1.000000       
D   1   1.00
      0.4544000              1.000000       
D   1   1.00
      0.1900000              1.000000       
D   1   1.00
      0.0715000              1.0000000        
D   1   1.00
      6.9565000              1.0000000        
D   1   1.00
      3.6674000              1.0000000        
D   1   1.00
      0.0269100              1.0000000        
F   1   1.00
     10.3791000              1.0000000        
F   1   1.00
      4.4257000              1.0000000        
F   1   1.00
      1.8872000              1.0000000        
F   1   1.00
      0.6538000              1.0000000        
F   1   1.00
      0.2265000              1.0000000        
G   1   1.00
      8.5105000              1.0000000        
G   1   1.00
      3.8307000              1.0000000        
G   1   1.00
      1.5457000              1.0000000        
G   1   1.00
      0.6237000              1.0000000        
H   1   1.00
      7.7448000              1.0000000        
H   1   1.00
      3.3495000              1.0000000        
H   1   1.00
      1.4486000              1.0000000        
****

Ni 0
ECP10MDF 3 10
F-Komponente
1
2 1.000000 0.000000
S-F
2
2 26.740000 317.682272
2 11.860000 58.255391
P-F
2
2 28.800000 252.474366
2 11.790000 36.081503
D-F
2
2 33.700000 -18.522955
2 11.660000 -4.557668

