%mem=80GB
%chk=tz.chk
%cpu=0-31

#P ROCCSD(T)=(MaxCyc=150, Full)/Gen SCF=(maxcycle=400) Pseudo=Read Integral(NoXCTest) Pop=Regular MaxDisk=500GB Guess=Read IOp(5/15=2)

Fe

0 5
Fe 0.0 0.0 0.0

Fe     0 
S   1   1.00
 4316265.0000000             1.0000000       
S   1   1.00
 646342.4000000              1.0000000       
S   1   1.00
 147089.7000000              1.0000000       
S   1   1.00
  41661.5200000              1.0000000       
S   1   1.00
  13590.7700000              1.0000000       
S   1   1.00
   4905.7500000              1.0000000       
S   1   1.00
   1912.7460000              1.0000000       
S   1   1.00
    792.6043000              1.0000000       
S   1   1.00
    344.8065000              1.0000000       
S   1   1.00
    155.8999000              1.0000000       
S   1   1.00
     72.2309100              1.0000000       
S   1   1.00
     32.7250600              1.0000000       
S   1   1.00
     15.6676200              1.0000000       
S   1   1.00
      7.5034830              1.0000000       
S   1   1.00
      3.3122230              1.0000000       
S   1   1.00
      1.5584710              1.0000000       
S   1   1.00
      0.6839140              1.0000000       
S   1   1.00
      0.1467570              1.0000000       
S   1   1.00
      0.0705830              1.0000000       
S   1   1.00
      0.0314490              1.0000000        
S   1   1.00
      4.6844000              1.0000000        
S   1   1.00
      1.2204000              1.0000000        
S   1   1.00
      0.0140100              1.0000000        
P   1   1.00
  17745.6900000              1.0000000       
P   1   1.00
   4200.7210000              1.0000000       
P   1   1.00
   1364.4290000              1.0000000       
P   1   1.00
    522.0806000              1.0000000       
P   1   1.00
    221.4595000              1.0000000       
P   1   1.00
    100.9096000              1.0000000       
P   1   1.00
     48.4011500              1.0000000       
P   1   1.00
     23.9853600              1.0000000       
P   1   1.00
     12.1825000              1.0000000       
P   1   1.00
      6.2422980              1.0000000       
P   1   1.00
      3.1109440              1.0000000       
P   1   1.00
      1.5099580              1.0000000       
P   1   1.00
      0.7108450              1.0000000       
P   1   1.00
      0.2725980              1.0000000       
P   1   1.00
      0.1039720              1.0000000       
P   1   1.00
      0.0381660              1.0000000        
P   1   1.00
      6.8788000              1.0000000        
P   1   1.00
      1.5748000              1.0000000        
P   1   1.00
      0.0140100              1.0000000        
D   1   1.00
    114.8840000              1.0000000       
D   1   1.00
     33.8878000              1.0000000       
D   1   1.00
     12.3730000              1.0000000       
D   1   1.00
      4.9992500              1.0000000       
D   1   1.00
      2.0704300              1.0000000       
D   1   1.00
      0.8281830              1.0000000       
D   1   1.00
      0.3075470              1.0000000       
D   1   1.00
      0.0994550              1.0000000        
D   1   1.00
      4.5305000              1.0000000        
D   1   1.00
      2.1205000              1.0000000        
D   1   1.00
      0.0321600              1.0000000        
F   1   1.00
      6.0066000              1.0000000        
F   1   1.00
      2.2522000              1.0000000        
F   1   1.00
      0.7758000              1.0000000        
F   1   1.00
      0.2672300              1.0000000        
G   1   1.00
      5.5068000              1.0000000        
G   1   1.00
      2.0515000              1.0000000        
G   1   1.00
      0.7642600              1.0000000        
****

Fe 0
QMC_SC 2 10
COMMENT LINE
3
1 3.72075632 16.00000000
3 3.92321272 59.53210107
2 3.89595440 -68.75847841
COMMENT LINE
1
2 10.42343546 112.92561163
COMMENT LINE
1
2 8.41664076 52.55882759

!1-4 10 9 5 6 7 8


