%mem=80GB
%cpu=0-31
%chk=5z.chk
%rwf=/scratch/04843/gwang18/cuh/

#P ROCCSD(T)=(MaxCyc=150, Full)/Gen SCF=(maxcycle=400, vshift=200) Integral(DKHSO, NoXCTest) Pop=Regular MaxDisk=500GB Guess=Read !IOp(5/15=2)

CuH

0 1
Cu 0.0 0.0 0.0
H 0.0 0.0 1.3

Cu     0 
S   1   1.00
      1.93188E+08            1.000000    
S   1   1.00
      3.39452E+07            1.000000    
S   1   1.00
      7.51046E+06            1.000000    
S   1   1.00
      2.00199E+06            1.000000    
S   1   1.00
 619378.0000000              1.000000    
S   1   1.00
 215606.0000000              1.000000    
S   1   1.00
  82327.1000000              1.000000    
S   1   1.00
  33788.4000000              1.000000    
S   1   1.00
  14670.0000000              1.000000    
S   1   1.00
   6657.4400000              1.000000    
S   1   1.00
   3130.2600000              1.000000    
S   1   1.00
   1515.6100000              1.000000    
S   1   1.00
    752.5880000              1.000000    
S   1   1.00
    382.2490000              1.000000    
S   1   1.00
    198.2370000              1.000000    
S   1   1.00
    104.8100000              1.000000    
S   1   1.00
     56.3885000              1.000000    
S   1   1.00
     30.7830000              1.000000    
S   1   1.00
     16.9770000              1.000000    
S   1   1.00
      9.3972500              1.000000    
S   1   1.00
      5.1723800              1.000000    
S   1   1.00
      2.7953500              1.000000    
S   1   1.00
      1.4589000              1.000000    
S   1   1.00
      0.7287110              1.000000    
S   1   1.00
      0.2376420              1.000000    
S   1   1.00
      0.1278210              1.000000    
S   1   1.00
      0.0618150              1.000000    
S   1   1.00
      0.0293030              1.0000000        
S   1   1.00
      9.3455000              1.0000000        
S   1   1.00
      3.3051000              1.0000000        
S   1   1.00
      0.0138900              1.0000000        
P   1   1.00
 110294.0000000              1.000000       
P   1   1.00
  26939.1000000              1.000000       
P   1   1.00
   8550.7100000              1.000000       
P   1   1.00
   3246.1900000              1.000000       
P   1   1.00
   1388.4600000              1.000000       
P   1   1.00
    642.4740000              1.000000       
P   1   1.00
    313.5700000              1.000000       
P   1   1.00
    159.1610000              1.000000       
P   1   1.00
     83.4414000              1.000000       
P   1   1.00
     45.0196000              1.000000       
P   1   1.00
     24.8894000              1.000000       
P   1   1.00
     13.9731000              1.000000       
P   1   1.00
      7.8257100              1.000000       
P   1   1.00
      4.2863200              1.000000       
P   1   1.00
      2.2903400              1.000000       
P   1   1.00
      1.1934200              1.000000       
P   1   1.00
      0.5937650              1.000000       
P   1   1.00
      0.2239870              1.000000       
P   1   1.00
      0.0890260              1.000000       
P   1   1.00
      0.0352130              1.0000000        
P   1   1.00
     14.0035000              1.0000000        
P   1   1.00
      4.5398000              1.0000000        
P   1   1.00
      0.0139300              1.0000000        
D   1   1.00
    732.8930000              1.000000       
D   1   1.00
    220.7530000              1.000000       
D   1   1.00
     85.6268000              1.000000       
D   1   1.00
     37.7178000              1.000000       
D   1   1.00
     17.7647000              1.000000       
D   1   1.00
      8.7641500              1.000000       
D   1   1.00
      4.4178660              1.000000       
D   1   1.00
      2.2180390              1.000000       
D   1   1.00
      1.0935310              1.000000       
D   1   1.00
      0.5230910              1.000000       
D   1   1.00
      0.2384750              1.000000       
D   1   1.00
      0.1000260              1.0000000        
D   1   1.00
     10.8534000              1.0000000        
D   1   1.00
      6.4396000              1.0000000        
D   1   1.00
      0.0419500              1.0000000        
F   1   1.00
     16.4096000              1.0000000        
F   1   1.00
      7.3000000              1.0000000        
F   1   1.00
      3.2475000              1.0000000        
F   1   1.00
      1.4447000              1.0000000        
F   1   1.00
      0.5005000              1.0000000        
F   1   1.00
      0.1733900              1.0000000        
G   1   1.00
     11.5984000              1.0000000        
G   1   1.00
      5.7591000              1.0000000        
G   1   1.00
      2.8596000              1.0000000        
G   1   1.00
      1.1042000              1.0000000        
G   1   1.00
      0.4263700              1.0000000        
H   1   1.00
     10.0319000              1.0000000        
H   1   1.00
      4.8836000              1.0000000        
H   1   1.00
      2.1024000              1.0000000        
H   1   1.00
      0.9050900              1.0000000        
I   1   1.00
      9.9825000              1.0000000        
I   1   1.00
      4.9428000              1.0000000        
I   1   1.00
      2.4474100              1.0000000        
****
H     0 
S   1   1.00
    402.0000000              1.000000        
S   1   1.00
     60.2400000              1.000000        
S   1   1.00
     13.7300000              1.000000        
S   1   1.00
      3.9050000              1.000000        
S   1   1.00
      1.2830000              1.0000000        
S   1   1.00
      0.4655000              1.0000000        
S   1   1.00
      0.1811000              1.0000000        
S   1   1.00
      0.0727900              1.0000000        
S   1   1.00
      0.0207000              1.0000000        
P   1   1.00
      4.5160000              1.0000000        
P   1   1.00
      1.7120000              1.0000000        
P   1   1.00
      0.6490000              1.0000000        
P   1   1.00
      0.2460000              1.0000000        
P   1   1.00
      0.0744000              1.0000000        
D   1   1.00
      2.9500000              1.0000000        
D   1   1.00
      1.2060000              1.0000000        
D   1   1.00
      0.4930000              1.0000000        
D   1   1.00
      0.1560000              1.0000000        
F   1   1.00
      2.5060000              1.0000000        
F   1   1.00
      0.8750000              1.0000000        
F   1   1.00
      0.2740000              1.0000000        
G   1   1.00
      2.3580000              1.0000000        
G   1   1.00
      0.5430000              1.0000000        
****

