%mem=160GB
%cpu=0-31
%chk=qz.chk
%rwf=/scratch/04843/gwang18/zno/

#P ROCCSD(T)=(MaxCyc=150, Full)/Gen SCF=(maxcycle=400) Integral(DKHSO, NoXCTest) Pop=Regular MaxDisk=500GB Guess=Read IOp(5/15=2)

ZnO

0 1
Zn 0.0 0.0 0.0
O 0.0 0.0 1.6

Zn     0 
S   1   1.00
      0.1785293E+08          1.000000    
S   1   1.00
 2673038.0000000             1.000000    
S   1   1.00
 608324.4000000              1.000000    
S   1   1.00
 172317.6000000              1.000000    
S   1   1.00
  56222.6900000              1.000000    
S   1   1.00
  20299.8500000              1.000000    
S   1   1.00
   7918.8710000              1.000000    
S   1   1.00
   3285.3400000              1.000000    
S   1   1.00
   1433.5240000              1.000000    
S   1   1.00
    652.2889000              1.000000    
S   1   1.00
    307.4360000              1.000000    
S   1   1.00
    149.1466000              1.000000    
S   1   1.00
     73.4510800              1.000000    
S   1   1.00
     33.9256200              1.000000    
S   1   1.00
     17.1894700              1.000000    
S   1   1.00
      8.6665950              1.000000    
S   1   1.00
      3.9725050              1.000000    
S   1   1.00
      1.8946650              1.000000    
S   1   1.00
      0.8593850              1.000000    
S   1   1.00
      0.1952560              1.000000    
S   1   1.00
      0.0858540              1.000000    
S   1   1.00
      0.0367810              1.0000000        
S   1   1.00
      8.3276000              1.0000000        
S   1   1.00
      3.4194000              1.0000000        
S   1   1.00
      0.0157600              1.0000000        
P   1   1.00
  52867.9300000              1.000000       
P   1   1.00
  12511.7900000              1.000000       
P   1   1.00
   4065.2860000              1.000000       
P   1   1.00
   1557.5950000              1.000000       
P   1   1.00
    663.2892000              1.000000       
P   1   1.00
    304.1561000              1.000000       
P   1   1.00
    147.3680000              1.000000       
P   1   1.00
     74.4546900              1.000000       
P   1   1.00
     38.7149300              1.000000       
P   1   1.00
     20.5702200              1.000000       
P   1   1.00
     11.0542500              1.000000       
P   1   1.00
      5.8746610              1.000000       
P   1   1.00
      3.0529360              1.000000       
P   1   1.00
      1.5472250              1.000000       
P   1   1.00
      0.7541510              1.000000       
P   1   1.00
      0.2653490              1.000000       
P   1   1.00
      0.1020670              1.000000       
P   1   1.00
      0.0387550              1.0000000        
P   1   1.00
     12.5357000              1.0000000        
P   1   1.00
      3.4227000              1.0000000        
P   1   1.00
      0.0147200              1.0000000        
D   1   1.00
    639.7806000              1.000000       
D   1   1.00
    192.6742000              1.000000       
D   1   1.00
     74.8436800              1.000000       
D   1   1.00
     32.8604800              1.000000       
D   1   1.00
     15.3935300              1.000000       
D   1   1.00
      7.5255120              1.000000       
D   1   1.00
      3.7154290              1.000000       
D   1   1.00
      1.8064590              1.000000       
D   1   1.00
      0.8529730              1.000000       
D   1   1.00
      0.3847800              1.000000       
D   1   1.00
      0.1593370              1.0000000        
D   1   1.00
      9.2094000              1.0000000        
D   1   1.00
      5.2262000              1.0000000        
D   1   1.00
      0.0659800              1.0000000        
F   1   1.00
     13.2355000              1.0000000        
F   1   1.00
      5.6706000              1.0000000        
F   1   1.00
      2.4295000              1.0000000        
F   1   1.00
      0.8530000              1.0000000        
F   1   1.00
      0.2994900              1.0000000        
G   1   1.00
     10.7902000              1.0000000        
G   1   1.00
      4.9368000              1.0000000        
G   1   1.00
      2.0693000              1.0000000        
G   1   1.00
      0.8673600              1.0000000        
H   1   1.00
      9.6086000              1.0000000        
H   1   1.00
      4.4136000              1.0000000        
H   1   1.00
      2.0273400              1.0000000        
****
O     0 
S   1   1.00
  61420.0000000              1.000000       
S   1   1.00
   9199.0000000              1.000000       
S   1   1.00
   2091.0000000              1.000000       
S   1   1.00
    590.9000000              1.000000       
S   1   1.00
    192.3000000              1.000000       
S   1   1.00
     69.3200000              1.000000       
S   1   1.00
     26.9700000              1.000000       
S   1   1.00
     11.1000000              1.000000       
S   1   1.00
      4.6820000              1.000000       
S   1   1.00
      1.4280000              1.0000000        
S   1   1.00
      0.5547000              1.0000000        
S   1   1.00
      0.2067000              1.0000000        
S   1   1.00
     12.9740000              1.0000000        
S   1   1.00
     34.9000000              1.0000000        
S   1   1.00
     93.8810000              1.0000000        
S   1   1.00
      0.0695900              1.0000000        
P   1   1.00
     63.4200000              1.000000        
P   1   1.00
     14.6600000              1.000000        
P   1   1.00
      4.4590000              1.000000        
P   1   1.00
      1.5310000              1.0000000        
P   1   1.00
      0.5302000              1.0000000        
P   1   1.00
      0.1750000              1.0000000        
P   1   1.00
     14.4750000              1.0000000        
P   1   1.00
     42.7300000              1.0000000        
P   1   1.00
    126.1400000              1.0000000        
P   1   1.00
      0.0534800              1.0000000        
D   1   1.00
      3.7750000              1.0000000        
D   1   1.00
      1.3000000              1.0000000        
D   1   1.00
      0.4440000              1.0000000        
D   1   1.00
     14.9270000              1.0000000        
D   1   1.00
     57.5440000              1.0000000        
D   1   1.00
      0.1540000              1.0000000        
F   1   1.00
      2.6660000              1.0000000        
F   1   1.00
      0.8590000              1.0000000        
F   1   1.00
     26.4830000              1.0000000        
F   1   1.00
      0.3240000              1.0000000        
G   1   1.00
      1.8460000              1.0000000        
G   1   1.00
      0.7140000              1.0000000        
****

