%MEM=80GB
%CPU=0-15
%RWF=/scratch/04843/aannabe/gaussian/
%Int=/scratch/04843/aannabe/gaussian/
%D2E=/scratch/04843/aannabe/gaussian/
%NoSave
%CHK=TiO

!Make sure DKHSO is turned off
#P ROCCSD(T)=(maxcyc=150, Full, SaveAmplitudes, ReadAmplitudes)/Gen 5d 7f SCF=(maxcycles=300) Integral(NoXCTest) MaxDisk=500GB Pop=Regular Pseudo=Read Guess=Read IOp(5/15=2) 

TiO

0 3
Ti 0.0 0.0 0.0
O  0.0 0.0 1.80

Ti     0 
S   1   1.00
 3014643.0000000             1.000       
S   1   1.00
 451432.9000000              1.000       
S   1   1.00
 102733.8000000              1.000       
S   1   1.00
  29098.1700000              1.000       
S   1   1.00
   9492.3300000              1.000       
S   1   1.00
   3426.3460000              1.000       
S   1   1.00
   1335.8960000              1.000       
S   1   1.00
    553.5026000              1.000       
S   1   1.00
    240.6925000              1.000       
S   1   1.00
    108.7293000              1.000       
S   1   1.00
     50.2645700              1.000       
S   1   1.00
     22.5800400              1.000       
S   1   1.00
     10.7143200              1.000       
S   1   1.00
      5.0935460              1.000       
S   1   1.00
      2.2441830              1.000       
S   1   1.00
      1.0595700              1.000       
S   1   1.00
      0.4688490              1.000       
S   1   1.00
      0.1061430              1.000       
S   1   1.00
      0.0552620              1.000       
S   1   1.00
      0.0254650              1.0000000        
S   1   1.00
      2.9691000              1.0000000        
S   1   1.00
      0.7105000              1.0000000        
S   1   1.00
      0.0117300              1.0000000        
P   1   1.00
  11912.0300000              1.000       
P   1   1.00
   2819.9470000              1.000       
P   1   1.00
    915.9479000              1.000       
P   1   1.00
    350.3842000              1.000       
P   1   1.00
    148.4825000              1.000       
P   1   1.00
     67.5394400              1.000       
P   1   1.00
     32.3033200              1.000       
P   1   1.00
     15.9278600              1.000       
P   1   1.00
      8.0380350              1.000       
P   1   1.00
      4.0939160              1.000       
P   1   1.00
      2.0223900              1.000       
P   1   1.00
      0.9761020              1.000       
P   1   1.00
      0.4595950              1.000       
P   1   1.00
      0.1771950              1.000       
P   1   1.00
      0.0734420              1.000       
P   1   1.00
      0.0293340              1.0000000        
P   1   1.00
      4.0234000              1.0000000        
P   1   1.00
      0.9417000              1.0000000        
P   1   1.00
      0.0117200              1.0000000        
D   1   1.00
     64.3402000              1.000       
D   1   1.00
     18.8418000              1.000       
D   1   1.00
      6.7198300              1.000       
D   1   1.00
      2.6561300              1.000       
D   1   1.00
      1.0736800              1.000       
D   1   1.00
      0.4205570              1.000       
D   1   1.00
      0.1548170              1.000       
D   1   1.00
      0.0514900              1.0000000        
D   1   1.00
      2.3834000              1.0000000        
D   1   1.00
      1.0775000              1.0000000        
D   1   1.00
      0.0171200              1.0000000        
F   1   1.00
      2.8376000              1.0000000        
F   1   1.00
      0.9633000              1.0000000        
F   1   1.00
      0.2788000              1.0000000        
F   1   1.00
      0.0806900              1.0000000        
G   1   1.00
      2.4639000              1.0000000        
G   1   1.00
      0.7092000              1.0000000        
G   1   1.00
      0.2041300              1.0000000        
****
O     0 
S   1   1.00
  15330.0000000              1.000       
S   1   1.00
   2299.0000000              1.000       
S   1   1.00
    522.4000000              1.000       
S   1   1.00
    147.3000000              1.000       
S   1   1.00
     47.5500000              1.000       
S   1   1.00
     16.7600000              1.000       
S   1   1.00
      6.2070000              1.000       
S   1   1.00
      0.6882000              1.000       
S   1   1.00
      1.7520000              1.0000000        
S   1   1.00
      0.2384000              1.0000000        
S   1   1.00
      7.8450000              1.0000000        
S   1   1.00
     21.0320000              1.0000000        
S   1   1.00
      0.0737600              1.0000000        
P   1   1.00
     34.4600000              1.000        
P   1   1.00
      7.7490000              1.000        
P   1   1.00
      2.2800000              1.000        
P   1   1.00
      0.7156000              1.0000000        
P   1   1.00
      0.2140000              1.0000000        
P   1   1.00
     15.1590000              1.0000000        
P   1   1.00
     57.4370000              1.0000000        
P   1   1.00
      0.0597400              1.0000000        
D   1   1.00
      2.3140000              1.0000000        
D   1   1.00
      0.6450000              1.0000000        
D   1   1.00
     15.8580000              1.0000000        
D   1   1.00
      0.2140000              1.0000000        
F   1   1.00
      1.4280000              1.0000000        
F   1   1.00
      0.5000000              1.0000000        
****

Ti 0
QMC_SC 2 10
COMMENT LINE
3
1 1.85755224 12.00000000
3 3.30638246 22.29062683
2 2.70879079 -41.26280518
COMMENT LINE
1
2 8.03040157 96.94231089
COMMENT LINE
1
2 5.93291405 38.01641313
O 0
QMC 1 2

3
1 12.30997 6.00000
3 14.76962 73.85984
2 13.71419 -47.87600

1
2 13.65512 85.86406

