%MEM=64GB
%CPU=0-15
%RWF=/scratch/04843/aannabe/gaussian/
%Int=/scratch/04843/aannabe/gaussian/
%D2E=/scratch/04843/aannabe/gaussian/
%NoSave
%CHK=MnH

!Make sure DKHSO is turned off
#P ROCCSD(T)=(maxcyc=150, Full,   ReadAmplitudes)/Gen 5d 7f SCF=(maxcycles=300) Integral(NoXCTest) MaxDisk=500GB Pop=Regular Pseudo=Read Guess=Read !IOp(5/15=2) 

MnH

0 7
Mn 0.0 0.0 0.0
H  0.0 0.0 1.90

Mn     0 
S   1   1.00
      1.37766E+08            1.000    
S   1   1.00
      2.45640E+07            1.000    
S   1   1.00
      5.47999E+06            1.000    
S   1   1.00
      1.46664E+06            1.000    
S   1   1.00
 454421.0000000              1.000    
S   1   1.00
 158216.0000000              1.000    
S   1   1.00
  60404.3000000              1.000    
S   1   1.00
  24793.6000000              1.000    
S   1   1.00
  10772.3000000              1.000    
S   1   1.00
   4895.5400000              1.000    
S   1   1.00
   2306.5600000              1.000    
S   1   1.00
   1119.5600000              1.000    
S   1   1.00
    557.3810000              1.000    
S   1   1.00
    283.7780000              1.000    
S   1   1.00
    147.4360000              1.000    
S   1   1.00
     78.0227000              1.000    
S   1   1.00
     41.9679000              1.000    
S   1   1.00
     22.8778000              1.000    
S   1   1.00
     12.5845000              1.000    
S   1   1.00
      6.9417000              1.000    
S   1   1.00
      3.8062900              1.000    
S   1   1.00
      2.0503100              1.000    
S   1   1.00
      1.0683800              1.000    
S   1   1.00
      0.5366060              1.000    
S   1   1.00
      0.1832600              1.000    
S   1   1.00
      0.1052970              1.000    
S   1   1.00
      0.0514640              1.000    
S   1   1.00
      0.0246780              1.0000000        
S   1   1.00
      5.8340000              1.0000000        
S   1   1.00
      1.9879000              1.0000000        
S   1   1.00
      0.0118300              1.0000000        
P   1   1.00
  79296.8000000              1.000       
P   1   1.00
  19317.1000000              1.000       
P   1   1.00
   6114.1000000              1.000       
P   1   1.00
   2316.2600000              1.000       
P   1   1.00
    989.6900000              1.000       
P   1   1.00
    457.9420000              1.000       
P   1   1.00
    223.6420000              1.000       
P   1   1.00
    113.5940000              1.000       
P   1   1.00
     59.5621000              1.000       
P   1   1.00
     32.1072000              1.000       
P   1   1.00
     17.7103000              1.000       
P   1   1.00
      9.9062100              1.000       
P   1   1.00
      5.5224300              1.000       
P   1   1.00
      3.0083200              1.000       
P   1   1.00
      1.5987300              1.000       
P   1   1.00
      0.8308680              1.000       
P   1   1.00
      0.4135380              1.000       
P   1   1.00
      0.1712140              1.000       
P   1   1.00
      0.0721220              1.000       
P   1   1.00
      0.0301100              1.0000000        
P   1   1.00
      8.8318000              1.0000000        
P   1   1.00
      2.6917000              1.0000000        
P   1   1.00
      0.0125700              1.0000000        
D   1   1.00
    449.7850000              1.000       
D   1   1.00
    132.7510000              1.000       
D   1   1.00
     50.9528000              1.000       
D   1   1.00
     22.1594000              1.000       
D   1   1.00
     10.2612000              1.000       
D   1   1.00
      4.9780300              1.000       
D   1   1.00
      2.4573000              1.000       
D   1   1.00
      1.2010100              1.000       
D   1   1.00
      0.5725160              1.000       
D   1   1.00
      0.2625960              1.000       
D   1   1.00
      0.1141400              1.000       
D   1   1.00
      0.0456420              1.0000000        
D   1   1.00
      5.9718000              1.0000000        
D   1   1.00
      3.5428000              1.0000000        
D   1   1.00
      0.0182500              1.0000000        
F   1   1.00
      9.4747000              1.0000000        
F   1   1.00
      4.1404000              1.0000000        
F   1   1.00
      1.8093000              1.0000000        
F   1   1.00
      0.7906000              1.0000000        
F   1   1.00
      0.2614000              1.0000000        
F   1   1.00
      0.0864300              1.0000000        
G   1   1.00
      6.4908000              1.0000000        
G   1   1.00
      3.1225000              1.0000000        
G   1   1.00
      1.5022000              1.0000000        
G   1   1.00
      0.5327000              1.0000000        
G   1   1.00
      0.1889000              1.0000000        
H   1   1.00
      6.0071000              1.0000000        
H   1   1.00
      2.7692000              1.0000000        
H   1   1.00
      1.0636000              1.0000000        
H   1   1.00
      0.4085100              1.0000000        
I   1   1.00
      6.0846000              1.0000000        
I   1   1.00
      2.5736000              1.0000000        
I   1   1.00
      1.0885500              1.0000000        
****
H     0 
S   1   1.00
    402.0000000              1.000        
S   1   1.00
     60.2400000              1.000        
S   1   1.00
     13.7300000              1.000        
S   1   1.00
      3.9050000              1.000        
S   1   1.00
      1.2830000              1.0000000        
S   1   1.00
      0.4655000              1.0000000        
S   1   1.00
      0.1811000              1.0000000        
S   1   1.00
      0.0727900              1.0000000        
S   1   1.00
      0.0207000              1.0000000        
P   1   1.00
      4.5160000              1.0000000        
P   1   1.00
      1.7120000              1.0000000        
P   1   1.00
      0.6490000              1.0000000        
P   1   1.00
      0.2460000              1.0000000        
P   1   1.00
      0.0744000              1.0000000        
D   1   1.00
      2.9500000              1.0000000        
D   1   1.00
      1.2060000              1.0000000        
D   1   1.00
      0.4930000              1.0000000        
D   1   1.00
      0.1560000              1.0000000        
F   1   1.00
      2.5060000              1.0000000        
F   1   1.00
      0.8750000              1.0000000        
F   1   1.00
      0.2740000              1.0000000        
G   1   1.00
      2.3580000              1.0000000        
G   1   1.00
      0.5430000              1.0000000        
****

Mn 0
QMC 3 10

6
1  18.43432244      15.00000000
2  12.74175213   31301.56494509
2  11.67410914   -4576.35463180
2  12.90376156  -26766.73507377
2   4.97171871      -4.09339906
3   8.79264819     276.51483655

6
2  13.56187871    2771.78238977
2   9.44812535   12553.69429672
2  10.76503846    1886.79316638
2  11.65345594   -9260.55332402
2   8.48073002   -8943.95003535
2   6.96707028    1041.73211249

6
2  12.71342918  -23181.32761179
2  18.03174513  111577.22220216
2  16.68279060  -42399.84416473
2  13.18867124   16025.79106608
2  18.42861128  -76264.60573764
2  12.90928974   14270.47832347

6
2   8.13384228    -382.83904013
2  14.28699222    5676.99013005
2  11.14406629   35338.03440844
2  11.37674978  -38881.44458388
2  18.25818233    3550.66026420
2  17.73146307   -5317.47975296
H 0
QMC 1 0

3
2   21.77696655044365   -10.85192405303825
1   21.24359508259891   1.00000000000000
3   21.24359508259891   21.24359508259891

1
2   1.0   0.0

