%mem=160GB
%cpu=0-31
%chk=qz.chk
%rwf=/scratch/04843/gwang18/cuh/

#P ROCCSD(T)=(MaxCyc=150, Full)/Gen SCF=(maxcycle=400, vshift=200) Integral(DKHSO, NoXCTest) Pop=Regular MaxDisk=500GB Guess=Read IOp(5/15=2)

CuH

0 1
Cu 0.0 0.0 0.0
H 0.0 0.0 1.0

Cu     0 
S   1   1.00
 16665490.0000000            1.000000    
S   1   1.00
 2495213.0000000             1.000000    
S   1   1.00
 567850.7000000              1.000000    
S   1   1.00
 160853.1000000              1.000000    
S   1   1.00
  52481.8600000              1.000000    
S   1   1.00
  18948.8500000              1.000000    
S   1   1.00
   7391.6550000              1.000000    
S   1   1.00
   3066.5170000              1.000000    
S   1   1.00
   1337.9940000              1.000000    
S   1   1.00
    608.7830000              1.000000    
S   1   1.00
    286.8980000              1.000000    
S   1   1.00
    139.1530000              1.000000    
S   1   1.00
     68.4945500              1.000000    
S   1   1.00
     31.6010800              1.000000    
S   1   1.00
     15.9915800              1.000000    
S   1   1.00
      8.0565100              1.000000    
S   1   1.00
      3.6903290              1.000000    
S   1   1.00
      1.7629020              1.000000    
S   1   1.00
      0.8012690              1.000000    
S   1   1.00
      0.1842430              1.000000    
S   1   1.00
      0.0817930              1.000000    
S   1   1.00
      0.0353030              1.0000000        
S   1   1.00
      7.2310000              1.0000000        
S   1   1.00
      1.9080000              1.0000000        
S   1   1.00
      0.0152400              1.0000000        
P   1   1.00
  48218.4100000              1.000000       
P   1   1.00
  11420.5500000              1.000000       
P   1   1.00
   3713.5690000              1.000000       
P   1   1.00
   1423.7620000              1.000000       
P   1   1.00
    606.6041000              1.000000       
P   1   1.00
    278.2564000              1.000000       
P   1   1.00
    134.8449000              1.000000       
P   1   1.00
     68.1225400              1.000000       
P   1   1.00
     35.4008800              1.000000       
P   1   1.00
     18.7902900              1.000000       
P   1   1.00
     10.0835600              1.000000       
P   1   1.00
      5.3461200              1.000000       
P   1   1.00
      2.7752280              1.000000       
P   1   1.00
      1.4075640              1.000000       
P   1   1.00
      0.6872130              1.000000       
P   1   1.00
      0.2468220              1.000000       
P   1   1.00
      0.0962200              1.000000       
P   1   1.00
      0.0370370              1.0000000        
P   1   1.00
     11.9218000              1.0000000        
P   1   1.00
      3.2325000              1.0000000        
P   1   1.00
      0.0142600              1.0000000        
D   1   1.00
    527.8860000              1.000000       
D   1   1.00
    158.7330000              1.000000       
D   1   1.00
     61.5556000              1.000000       
D   1   1.00
     26.8834000              1.000000       
D   1   1.00
     12.5175000              1.000000       
D   1   1.00
      6.0697700              1.000000       
D   1   1.00
      2.9583190              1.000000       
D   1   1.00
      1.4141220              1.000000       
D   1   1.00
      0.6533290              1.000000       
D   1   1.00
      0.2866920              1.000000       
D   1   1.00
      0.1150140              1.0000000        
D   1   1.00
      8.4804000              1.0000000        
D   1   1.00
      4.4553000              1.0000000        
D   1   1.00
      0.0461400              1.0000000        
F   1   1.00
     11.9463000              1.0000000        
F   1   1.00
      5.0345000              1.0000000        
F   1   1.00
      2.1217000              1.0000000        
F   1   1.00
      0.7391000              1.0000000        
F   1   1.00
      0.2574700              1.0000000        
G   1   1.00
      9.5934000              1.0000000        
G   1   1.00
      4.3083000              1.0000000        
G   1   1.00
      1.7760000              1.0000000        
G   1   1.00
      0.7321200              1.0000000        
H   1   1.00
      8.5704000              1.0000000        
H   1   1.00
      3.7909000              1.0000000        
H   1   1.00
      1.6768100              1.0000000        
****
H     0 
S   1   1.00
     82.6400000              1.000000        
S   1   1.00
     12.4100000              1.000000        
S   1   1.00
      2.8240000              1.000000        
S   1   1.00
      0.7977000              1.0000000        
S   1   1.00
      0.2581000              1.0000000        
S   1   1.00
      0.0898900              1.0000000        
S   1   1.00
      0.0236300              1.0000000        
P   1   1.00
      2.2920000              1.0000000        
P   1   1.00
      0.8380000              1.0000000        
P   1   1.00
      0.2920000              1.0000000        
P   1   1.00
      0.0848000              1.0000000        
D   1   1.00
      2.0620000              1.0000000        
D   1   1.00
      0.6620000              1.0000000        
D   1   1.00
      0.1900000              1.0000000        
F   1   1.00
      1.3970000              1.0000000        
F   1   1.00
      0.3600000              1.0000000        
****

