%mem=160GB
%cpu=0-31
%chk=qz.chk
%rwf=/scratch/04843/gwang18/nio/

#P ROCCSD(T)=(MaxCyc=150, Window=(7,0))/Gen SCF=(maxcycle=400) Integral(DKHSO, NoXCTest) Pop=Regular MaxDisk=500GB Guess=Read IOp(5/15=2)

NiO

0 3
Ni 0.0 0.0 0.0
O 0.0 0.0 1.4

Ni     0 
S   1   1.00
 15503020.0000000            1.000000    
S   1   1.00
 2321071.0000000             1.000000    
S   1   1.00
 528180.2000000              1.000000    
S   1   1.00
 149604.0000000              1.000000    
S   1   1.00
  48809.0700000              1.000000    
S   1   1.00
  17622.3900000              1.000000    
S   1   1.00
   6874.2010000              1.000000    
S   1   1.00
   2851.8570000              1.000000    
S   1   1.00
   1244.3340000              1.000000    
S   1   1.00
    566.1547000              1.000000    
S   1   1.00
    266.7873000              1.000000    
S   1   1.00
    129.3752000              1.000000    
S   1   1.00
     63.6516100              1.000000    
S   1   1.00
     29.3330200              1.000000    
S   1   1.00
     14.8221200              1.000000    
S   1   1.00
      7.4605130              1.000000    
S   1   1.00
      3.4135760              1.000000    
S   1   1.00
      1.6328840              1.000000    
S   1   1.00
      0.7435790              1.000000    
S   1   1.00
      0.1725920              1.000000    
S   1   1.00
      0.0774200              1.000000    
S   1   1.00
      0.0337010              1.0000000        
S   1   1.00
      6.5001000              1.0000000        
S   1   1.00
      1.7599000              1.0000000        
S   1   1.00
      0.0146700              1.0000000        
P   1   1.00
  45066.6200000              1.000000       
P   1   1.00
  10662.6400000              1.000000       
P   1   1.00
   3463.4310000              1.000000       
P   1   1.00
   1326.6240000              1.000000       
P   1   1.00
    564.7414000              1.000000       
P   1   1.00
    258.8288000              1.000000       
P   1   1.00
    125.3115000              1.000000       
P   1   1.00
     63.2423300              1.000000       
P   1   1.00
     32.8240600              1.000000       
P   1   1.00
     17.3969200              1.000000       
P   1   1.00
      9.3243940              1.000000       
P   1   1.00
      4.9388390              1.000000       
P   1   1.00
      2.5620250              1.000000       
P   1   1.00
      1.2992940              1.000000       
P   1   1.00
      0.6346780              1.000000       
P   1   1.00
      0.2322620              1.000000       
P   1   1.00
      0.0915460              1.000000       
P   1   1.00
      0.0356430              1.0000000        
P   1   1.00
     10.4165000              1.0000000        
P   1   1.00
      2.9093000              1.0000000        
P   1   1.00
      0.0138800              1.0000000        
D   1   1.00
    414.3427000              1.000000       
D   1   1.00
    124.3926000              1.000000       
D   1   1.00
     48.1154000              1.000000       
D   1   1.00
     20.8420000              1.000000       
D   1   1.00
      9.6221000              1.000000       
D   1   1.00
      4.6034000              1.000000       
D   1   1.00
      2.1963000              1.000000       
D   1   1.00
      1.0206000              1.000000       
D   1   1.00
      0.4544000              1.000000       
D   1   1.00
      0.1900000              1.000000       
D   1   1.00
      0.0715000              1.0000000        
D   1   1.00
      6.9565000              1.0000000        
D   1   1.00
      3.6674000              1.0000000        
D   1   1.00
      0.0269100              1.0000000        
F   1   1.00
     10.3791000              1.0000000        
F   1   1.00
      4.4257000              1.0000000        
F   1   1.00
      1.8872000              1.0000000        
F   1   1.00
      0.6538000              1.0000000        
F   1   1.00
      0.2265000              1.0000000        
G   1   1.00
      8.5105000              1.0000000        
G   1   1.00
      3.8307000              1.0000000        
G   1   1.00
      1.5457000              1.0000000        
G   1   1.00
      0.6237000              1.0000000        
H   1   1.00
      7.7448000              1.0000000        
H   1   1.00
      3.3495000              1.0000000        
H   1   1.00
      1.4486000              1.0000000        
****
O     0 
S   1   1.00
  61420.0000000              1.000000       
S   1   1.00
   9199.0000000              1.000000       
S   1   1.00
   2091.0000000              1.000000       
S   1   1.00
    590.9000000              1.000000       
S   1   1.00
    192.3000000              1.000000       
S   1   1.00
     69.3200000              1.000000       
S   1   1.00
     26.9700000              1.000000       
S   1   1.00
     11.1000000              1.000000       
S   1   1.00
      4.6820000              1.000000       
S   1   1.00
      1.4280000              1.0000000        
S   1   1.00
      0.5547000              1.0000000        
S   1   1.00
      0.2067000              1.0000000        
S   1   1.00
     12.9740000              1.0000000        
S   1   1.00
     34.9000000              1.0000000        
S   1   1.00
     93.8810000              1.0000000        
S   1   1.00
      0.0695900              1.0000000        
P   1   1.00
     63.4200000              1.000000        
P   1   1.00
     14.6600000              1.000000        
P   1   1.00
      4.4590000              1.000000        
P   1   1.00
      1.5310000              1.0000000        
P   1   1.00
      0.5302000              1.0000000        
P   1   1.00
      0.1750000              1.0000000        
P   1   1.00
     14.4750000              1.0000000        
P   1   1.00
     42.7300000              1.0000000        
P   1   1.00
    126.1400000              1.0000000        
P   1   1.00
      0.0534800              1.0000000        
D   1   1.00
      3.7750000              1.0000000        
D   1   1.00
      1.3000000              1.0000000        
D   1   1.00
      0.4440000              1.0000000        
D   1   1.00
     14.9270000              1.0000000        
D   1   1.00
     57.5440000              1.0000000        
D   1   1.00
      0.1540000              1.0000000        
F   1   1.00
      2.6660000              1.0000000        
F   1   1.00
      0.8590000              1.0000000        
F   1   1.00
     26.4830000              1.0000000        
F   1   1.00
      0.3240000              1.0000000        
G   1   1.00
      1.8460000              1.0000000        
G   1   1.00
      0.7140000              1.0000000        
****


!1-5 10 9 8 6 7


