%mem=80GB
%cpu=0-31
%chk=qz.chk
%rwf=/scratch/04843/gwang18/feo/

#P ROCCSD(T)=(MaxCyc=150, Full)/Gen SCF=(maxcycle=400) Pseudo=Read Integral(NoXCTest) Pop=Regular MaxDisk=500GB

FeO

0 5
Fe 0.0 0.0 0.0
O 0.0 0.0 1.2

Fe     0 
S   1   1.00
      0.1327714E+08          1.0000000       
S   1   1.00
 1987888.0000000             1.0000000       
S   1   1.00
 452387.1000000              1.0000000       
S   1   1.00
 128143.7000000              1.0000000       
S   1   1.00
  41809.1700000              1.0000000       
S   1   1.00
  15095.3300000              1.0000000       
S   1   1.00
   5888.4380000              1.0000000       
S   1   1.00
   2442.8760000              1.0000000       
S   1   1.00
   1065.8570000              1.0000000       
S   1   1.00
    484.9096000              1.0000000       
S   1   1.00
    228.4585000              1.0000000       
S   1   1.00
    110.7453000              1.0000000       
S   1   1.00
     54.4311600              1.0000000       
S   1   1.00
     25.0109600              1.0000000       
S   1   1.00
     12.5926200              1.0000000       
S   1   1.00
      6.3232020              1.0000000       
S   1   1.00
      2.8833840              1.0000000       
S   1   1.00
      1.3828680              1.0000000       
S   1   1.00
      0.6322010              1.0000000       
S   1   1.00
      0.1492380              1.0000000       
S   1   1.00
      0.0684940              1.0000000       
S   1   1.00
      0.0303810              1.0000000        
S   1   1.00
      5.7900000              1.0000000        
S   1   1.00
      1.7335000              1.0000000        
S   1   1.00
      0.0134800              1.0000000        
P   1   1.00
  38282.0500000              1.0000000       
P   1   1.00
   9061.5560000              1.0000000       
P   1   1.00
   2944.4500000              1.0000000       
P   1   1.00
   1128.1580000              1.0000000       
P   1   1.00
    480.3380000              1.0000000       
P   1   1.00
    220.1368000              1.0000000       
P   1   1.00
    106.5482000              1.0000000       
P   1   1.00
     53.7426200              1.0000000       
P   1   1.00
     27.8631800              1.0000000       
P   1   1.00
     14.7438200              1.0000000       
P   1   1.00
      7.8933510              1.0000000       
P   1   1.00
      4.1794970              1.0000000       
P   1   1.00
      2.1656690              1.0000000       
P   1   1.00
      1.0972400              1.0000000       
P   1   1.00
      0.5360850              1.0000000       
P   1   1.00
      0.2024530              1.0000000       
P   1   1.00
      0.0816950              1.0000000       
P   1   1.00
      0.0326140              1.0000000        
P   1   1.00
      8.3687000              1.0000000        
P   1   1.00
      2.2601000              1.0000000        
P   1   1.00
      0.0130200              1.0000000        
D   1   1.00
    350.9950000              1.0000000       
D   1   1.00
    103.6670000              1.0000000       
D   1   1.00
     39.7043000              1.0000000       
D   1   1.00
     17.0310000              1.0000000       
D   1   1.00
      7.7890200              1.0000000       
D   1   1.00
      3.6995500              1.0000000       
D   1   1.00
      1.7553200              1.0000000       
D   1   1.00
      0.8128450              1.0000000       
D   1   1.00
      0.3614410              1.0000000       
D   1   1.00
      0.1513460              1.0000000       
D   1   1.00
      0.0575130              1.0000000        
D   1   1.00
      5.4967000              1.0000000        
D   1   1.00
      2.8925000              1.0000000        
D   1   1.00
      0.0218600              1.0000000        
F   1   1.00
      7.7828000              1.0000000        
F   1   1.00
      3.2584000              1.0000000        
F   1   1.00
      1.3641000              1.0000000        
F   1   1.00
      0.4564000              1.0000000        
F   1   1.00
      0.1527000              1.0000000        
G   1   1.00
      6.3816000              1.0000000        
G   1   1.00
      2.7717000              1.0000000        
G   1   1.00
      1.0505000              1.0000000        
G   1   1.00
      0.3981500              1.0000000        
H   1   1.00
      5.8964000              1.0000000        
H   1   1.00
      2.3448000              1.0000000        
H   1   1.00
      0.9324500              1.0000000    
****
O     0 
S   1   1.00
  61420.0000000              1.000000       
S   1   1.00
   9199.0000000              1.000000       
S   1   1.00
   2091.0000000              1.000000       
S   1   1.00
    590.9000000              1.000000       
S   1   1.00
    192.3000000              1.000000       
S   1   1.00
     69.3200000              1.000000       
S   1   1.00
     26.9700000              1.000000       
S   1   1.00
     11.1000000              1.000000       
S   1   1.00
      4.6820000              1.000000       
S   1   1.00
      1.4280000              1.0000000        
S   1   1.00
      0.5547000              1.0000000        
S   1   1.00
      0.2067000              1.0000000        
S   1   1.00
     12.9740000              1.0000000        
S   1   1.00
     34.9000000              1.0000000        
S   1   1.00
     93.8810000              1.0000000        
S   1   1.00
      0.0695900              1.0000000        
P   1   1.00
     63.4200000              1.000000        
P   1   1.00
     14.6600000              1.000000        
P   1   1.00
      4.4590000              1.000000        
P   1   1.00
      1.5310000              1.0000000        
P   1   1.00
      0.5302000              1.0000000        
P   1   1.00
      0.1750000              1.0000000        
P   1   1.00
     14.4750000              1.0000000        
P   1   1.00
     42.7300000              1.0000000        
P   1   1.00
    126.1400000              1.0000000        
P   1   1.00
      0.0534800              1.0000000        
D   1   1.00
      3.7750000              1.0000000        
D   1   1.00
      1.3000000              1.0000000        
D   1   1.00
      0.4440000              1.0000000        
D   1   1.00
     14.9270000              1.0000000        
D   1   1.00
     57.5440000              1.0000000        
D   1   1.00
      0.1540000              1.0000000        
F   1   1.00
      2.6660000              1.0000000        
F   1   1.00
      0.8590000              1.0000000        
F   1   1.00
     26.4830000              1.0000000        
F   1   1.00
      0.3240000              1.0000000        
G   1   1.00
      1.8460000              1.0000000        
G   1   1.00
      0.7140000              1.0000000        
****

Fe 0
ECEPP 3 10          

6
1 16.90683491      16.00000000
2 18.40258134   26847.81569895
2  6.30300831    -133.54888707
2 18.42848726  -26765.40492320
2 18.43432023       1.00742417
3  7.01300654     270.50935856

6
2  9.62463353   20308.89993480
2  9.12709550  -17595.21707731
2  7.54163840    1884.69012383
2 12.70900949   -4483.50209856
2  8.14863339   -1094.38597968
2 16.27611739    1032.95376659

6
2 11.36514719    -905.00711112
2 14.56762424   34640.93582590
2 15.05861359  -42299.94223895
2 17.41337089   10633.68808757
2 18.37467520   -5844.19723669
2 17.04734437    3803.80414779

6
2 10.13935738  -11031.18647055
2 13.45796076   16711.37502047
2 10.97387824   37989.95033676
2 11.92919033  -41782.92514683
2 17.71230120    3812.58339812
2 17.32108913   -5718.00854971
O 0
QMC 2 2

6
1 10.27717748       6.00000000
2 15.99566749    1232.50197768
2 10.46901775    -696.47008301
2 14.63848010   -2654.22657081
2 12.57591181    2101.67732548
3  7.77739102      61.66306486

6
2 12.39426073 -656683.37638839
2 12.38126171  657858.57667068
2  8.57671033     511.50098405
2  9.89256508   -2579.54665641
2 28.05641604     -57.68129584
2 17.24753607     970.30940152

6
2 14.78918914 -363027.24258186
2 14.82014018  361852.52314043
2 22.89622221   -1300.20069256
2  8.51331893    -181.96869573
2 11.48609758    2194.87589959
2 27.22017524     451.19906206

