%MEM=80GB
%CPU=0-15
%RWF=/scratch/04843/aannabe/gaussian/
%Int=/scratch/04843/aannabe/gaussian/
%D2E=/scratch/04843/aannabe/gaussian/
%NoSave
%CHK=Ti


!Make sure DKHSO is turned off
#P ROCCSD(T)=(maxcyc=150, Full)/Gen 5d 7f SCF=(maxcycles=300, NoVarAcc, VShift=200) MaxDisk=100GB Pop=Regular Pseudo=Read Guess=Read !IOp(5/15=2) 
!#P ROHF/Gen 5d 7f SCF=(maxcycles=300, VShift=300) MaxDisk=100GB Pop=Regular Pseudo=Read !Guess=Read IOp(5/15=2) 

Ti

0 3
Ti 0.0 0.0 0.0

Ti     0 
S   1   1.00
 9317034.0000000             1.000       
S   1   1.00
 1394971.0000000             1.000       
S   1   1.00
 317453.1000000              1.000       
S   1   1.00
  89921.0000000              1.000       
S   1   1.00
  29338.1600000              1.000       
S   1   1.00
  10592.6600000              1.000       
S   1   1.00
   4132.0560000              1.000       
S   1   1.00
   1714.2350000              1.000       
S   1   1.00
    747.9151000              1.000       
S   1   1.00
    340.1991000              1.000       
S   1   1.00
    160.2060000              1.000       
S   1   1.00
     77.5885100              1.000       
S   1   1.00
     38.0448900              1.000       
S   1   1.00
     17.3536200              1.000       
S   1   1.00
      8.6420620              1.000       
S   1   1.00
      4.3044040              1.000       
S   1   1.00
      1.9377180              1.000       
S   1   1.00
      0.9365940              1.000       
S   1   1.00
      0.4326240              1.000       
S   1   1.00
      0.1073520              1.000       
S   1   1.00
      0.0520340              1.000       
S   1   1.00
      0.0240380              1.0000000        
S   1   1.00
      4.0519000              1.0000000        
S   1   1.00
      1.0592000              1.0000000        
S   1   1.00
      0.0111000              1.0000000        
P   1   1.00
  25537.3300000              1.000       
P   1   1.00
   6042.2430000              1.000       
P   1   1.00
   1962.6530000              1.000       
P   1   1.00
    751.7338000              1.000       
P   1   1.00
    319.8833000              1.000       
P   1   1.00
    146.4300000              1.000       
P   1   1.00
     70.7486100              1.000       
P   1   1.00
     35.5908800              1.000       
P   1   1.00
     18.3689300              1.000       
P   1   1.00
      9.6586550              1.000       
P   1   1.00
      5.1367300              1.000       
P   1   1.00
      2.6988720              1.000       
P   1   1.00
      1.3897030              1.000       
P   1   1.00
      0.7031630              1.000       
P   1   1.00
      0.3441230              1.000       
P   1   1.00
      0.1413750              1.000       
P   1   1.00
      0.0607910              1.000       
P   1   1.00
      0.0258310              1.0000000        
P   1   1.00
      4.8241000              1.0000000        
P   1   1.00
      1.2211000              1.0000000        
P   1   1.00
      0.0109800              1.0000000        
D   1   1.00
    199.9720000              1.000       
D   1   1.00
     59.1869000              1.000       
D   1   1.00
     22.6013000              1.000       
D   1   1.00
      9.5739100              1.000       
D   1   1.00
      4.3177100              1.000       
D   1   1.00
      2.0237300              1.000       
D   1   1.00
      0.9471690              1.000       
D   1   1.00
      0.4338770              1.000       
D   1   1.00
      0.1921260              1.000       
D   1   1.00
      0.0814040              1.000       
D   1   1.00
      0.0322330              1.0000000        
D   1   1.00
      2.7829000              1.0000000        
D   1   1.00
      1.3657000              1.0000000        
D   1   1.00
      0.0127600              1.0000000        
F   1   1.00
      3.7192000              1.0000000        
F   1   1.00
      1.4838000              1.0000000        
F   1   1.00
      0.5920000              1.0000000        
F   1   1.00
      0.1796000              1.0000000        
F   1   1.00
      0.0544900              1.0000000        
G   1   1.00
      3.2099000              1.0000000        
G   1   1.00
      1.2652000              1.0000000        
G   1   1.00
      0.3947000              1.0000000        
G   1   1.00
      0.1231300              1.0000000        
H   1   1.00
      2.7676000              1.0000000        
H   1   1.00
      0.8524000              1.0000000        
H   1   1.00
      0.2625300              1.0000000        
****

Ti 0
QMC 2 10

4
1 18.4140127034977  12.000
3 15.9392853098609  220.968152441972
2 13.6422831466695 -94.2852836403988
2 5.08424050911332  0.12116718074003

2
2 12.7326833890867  173.942950239060
2 6.11883833063714  18.8537323577459

2
2 12.6537465975669  111.452730041316
2 5.34454656432130  11.1762392754300

