%mem=80GB
%nproc=32

#P ROCCSD(T)=(maxcyc=100, Full)/Gen SCF=(maxcycle=400, symm) Pseudo=Read Integral(NoXCTest) Pop=Regular MaxDisk=500GB Guess=Permute IOp(5/15=2)

FeH

0 4
Fe 0.0 0.0 0.0
H 0.0 0.0 1.1

Fe     0 
S   1   1.00
      0.1327714E+08          1.0000000       
S   1   1.00
 1987888.0000000             1.0000000       
S   1   1.00
 452387.1000000              1.0000000       
S   1   1.00
 128143.7000000              1.0000000       
S   1   1.00
  41809.1700000              1.0000000       
S   1   1.00
  15095.3300000              1.0000000       
S   1   1.00
   5888.4380000              1.0000000       
S   1   1.00
   2442.8760000              1.0000000       
S   1   1.00
   1065.8570000              1.0000000       
S   1   1.00
    484.9096000              1.0000000       
S   1   1.00
    228.4585000              1.0000000       
S   1   1.00
    110.7453000              1.0000000       
S   1   1.00
     54.4311600              1.0000000       
S   1   1.00
     25.0109600              1.0000000       
S   1   1.00
     12.5926200              1.0000000       
S   1   1.00
      6.3232020              1.0000000       
S   1   1.00
      2.8833840              1.0000000       
S   1   1.00
      1.3828680              1.0000000       
S   1   1.00
      0.6322010              1.0000000       
S   1   1.00
      0.1492380              1.0000000       
S   1   1.00
      0.0684940              1.0000000       
S   1   1.00
      0.0303810              1.0000000        
S   1   1.00
      5.7900000              1.0000000        
S   1   1.00
      1.7335000              1.0000000        
S   1   1.00
      0.0134800              1.0000000        
P   1   1.00
  38282.0500000              1.0000000       
P   1   1.00
   9061.5560000              1.0000000       
P   1   1.00
   2944.4500000              1.0000000       
P   1   1.00
   1128.1580000              1.0000000       
P   1   1.00
    480.3380000              1.0000000       
P   1   1.00
    220.1368000              1.0000000       
P   1   1.00
    106.5482000              1.0000000       
P   1   1.00
     53.7426200              1.0000000       
P   1   1.00
     27.8631800              1.0000000       
P   1   1.00
     14.7438200              1.0000000       
P   1   1.00
      7.8933510              1.0000000       
P   1   1.00
      4.1794970              1.0000000       
P   1   1.00
      2.1656690              1.0000000       
P   1   1.00
      1.0972400              1.0000000       
P   1   1.00
      0.5360850              1.0000000       
P   1   1.00
      0.2024530              1.0000000       
P   1   1.00
      0.0816950              1.0000000       
P   1   1.00
      0.0326140              1.0000000        
P   1   1.00
      8.3687000              1.0000000        
P   1   1.00
      2.2601000              1.0000000        
P   1   1.00
      0.0130200              1.0000000        
D   1   1.00
    350.9950000              1.0000000       
D   1   1.00
    103.6670000              1.0000000       
D   1   1.00
     39.7043000              1.0000000       
D   1   1.00
     17.0310000              1.0000000       
D   1   1.00
      7.7890200              1.0000000       
D   1   1.00
      3.6995500              1.0000000       
D   1   1.00
      1.7553200              1.0000000       
D   1   1.00
      0.8128450              1.0000000       
D   1   1.00
      0.3614410              1.0000000       
D   1   1.00
      0.1513460              1.0000000       
D   1   1.00
      0.0575130              1.0000000        
D   1   1.00
      5.4967000              1.0000000        
D   1   1.00
      2.8925000              1.0000000        
D   1   1.00
      0.0218600              1.0000000        
F   1   1.00
      7.7828000              1.0000000        
F   1   1.00
      3.2584000              1.0000000        
F   1   1.00
      1.3641000              1.0000000        
F   1   1.00
      0.4564000              1.0000000        
F   1   1.00
      0.1527000              1.0000000        
G   1   1.00
      6.3816000              1.0000000        
G   1   1.00
      2.7717000              1.0000000        
G   1   1.00
      1.0505000              1.0000000        
G   1   1.00
      0.3981500              1.0000000        
H   1   1.00
      5.8964000              1.0000000        
H   1   1.00
      2.3448000              1.0000000        
H   1   1.00
      0.9324500              1.0000000    
****
H     0 
S   1   1.00
     82.6400000              1.000000        
S   1   1.00
     12.4100000              1.000000        
S   1   1.00
      2.8240000              1.000000        
S   1   1.00
      0.7977000              1.0000000        
S   1   1.00
      0.2581000              1.0000000        
S   1   1.00
      0.0898900              1.0000000        
S   1   1.00
      0.0236300              1.0000000        
P   1   1.00
      2.2920000              1.0000000        
P   1   1.00
      0.8380000              1.0000000        
P   1   1.00
      0.2920000              1.0000000        
P   1   1.00
      0.0848000              1.0000000        
D   1   1.00
      2.0620000              1.0000000        
D   1   1.00
      0.6620000              1.0000000        
D   1   1.00
      0.1900000              1.0000000        
F   1   1.00
      1.3970000              1.0000000        
F   1   1.00
      0.3600000              1.0000000        
****

Fe 0
ECEPP 3 10          

6
1 16.90683491      16.00000000
2 18.40258134   26847.81569895
2  6.30300831    -133.54888707
2 18.42848726  -26765.40492320
2 18.43432023       1.00742417
3  7.01300654     270.50935856

6
2  9.62463353   20308.89993480
2  9.12709550  -17595.21707731
2  7.54163840    1884.69012383
2 12.70900949   -4483.50209856
2  8.14863339   -1094.38597968
2 16.27611739    1032.95376659

6
2 11.36514719    -905.00711112
2 14.56762424   34640.93582590
2 15.05861359  -42299.94223895
2 17.41337089   10633.68808757
2 18.37467520   -5844.19723669
2 17.04734437    3803.80414779

6
2 10.13935738  -11031.18647055
2 13.45796076   16711.37502047
2 10.97387824   37989.95033676
2 11.92919033  -41782.92514683
2 17.71230120    3812.58339812
2 17.32108913   -5718.00854971
H 0
QMC 1 0

3
2   21.77696655044365      -10.85192405303825
1   21.24359508259891        1.00000000000000
3   21.24359508259891       21.24359508259891

1
2    1.               0.

1-5 10 9 8 6 7


