%mem=80GB
%cpu=0-31
%chk=tz.chk
%rwf=/scratch/04843/gwang18/coo/

#P ROCCSD(T)=(MaxCyc=150, Full)/Gen SCF=(maxcycle=400) Pseudo=Read Integral(NoXCTest) Pop=Regular MaxDisk=500GB Guess=Read IOp(5/15=2)

CoO

0 4
Co 0.0 0.0 0.0
O 0.0 0.0 1.3

Co     0 
S   1   1.00
 4675675.0000000             1.000000        
S   1   1.00
 700161.5000000              1.000000        
S   1   1.00
 159337.3000000              1.000000        
S   1   1.00
  45130.4600000              1.000000        
S   1   1.00
  14722.3800000              1.000000        
S   1   1.00
   5314.2220000              1.000000        
S   1   1.00
   2072.0180000              1.000000        
S   1   1.00
    858.6188000              1.000000        
S   1   1.00
    373.5497000              1.000000        
S   1   1.00
    168.9229000              1.000000        
S   1   1.00
     78.2963900              1.000000        
S   1   1.00
     35.5212300              1.000000        
S   1   1.00
     17.0414400              1.000000        
S   1   1.00
      8.1730000              1.000000        
S   1   1.00
      3.6103180              1.000000        
S   1   1.00
      1.6970470              1.000000        
S   1   1.00
      0.7435320              1.000000        
S   1   1.00
      0.1583440              1.000000        
S   1   1.00
      0.0750360              1.000000        
S   1   1.00
      0.0330910              1.0000000        
S   1   1.00
      5.2255000              1.0000000        
S   1   1.00
      1.3638000              1.0000000        
S   1   1.00
      0.0145900              1.0000000        
P   1   1.00
  19267.7800000              1.000000       
P   1   1.00
   4560.9860000              1.000000       
P   1   1.00
   1481.4360000              1.000000       
P   1   1.00
    566.8671000              1.000000       
P   1   1.00
    240.4910000              1.000000       
P   1   1.00
    109.6105000              1.000000       
P   1   1.00
     52.5949100              1.000000       
P   1   1.00
     26.0836100              1.000000       
P   1   1.00
     13.2614300              1.000000       
P   1   1.00
      6.7997780              1.000000       
P   1   1.00
      3.3934140              1.000000       
P   1   1.00
      1.6487660              1.000000       
P   1   1.00
      0.7762820              1.000000       
P   1   1.00
      0.2972090              1.000000       
P   1   1.00
      0.1133520              1.000000       
P   1   1.00
      0.0415100              1.0000000        
P   1   1.00
      7.7411000              1.0000000        
P   1   1.00
      1.7672000              1.0000000        
P   1   1.00
      0.0152000              1.0000000        
D   1   1.00
    128.3920000              1.000000       
D   1   1.00
     37.8938000              1.000000       
D   1   1.00
     13.8798000              1.000000       
D   1   1.00
      5.6254400              1.000000       
D   1   1.00
      2.3353900              1.000000       
D   1   1.00
      0.9351920              1.000000       
D   1   1.00
      0.3469530              1.000000       
D   1   1.00
      0.1117230              1.0000000        
D   1   1.00
      5.1384000              1.0000000        
D   1   1.00
      2.4056000              1.0000000        
D   1   1.00
      0.0359800              1.0000000        
F   1   1.00
      6.9240000              1.0000000        
F   1   1.00
      2.6244000              1.0000000        
F   1   1.00
      0.9170000              1.0000000        
F   1   1.00
      0.3204100              1.0000000        
G   1   1.00
      6.3248000              1.0000000        
G   1   1.00
      2.4229000              1.0000000        
G   1   1.00
      0.9281600              1.0000000        
****
O     0 
S   1   1.00
  15330.0000000              1.000000       
S   1   1.00
   2299.0000000              1.000000       
S   1   1.00
    522.4000000              1.000000       
S   1   1.00
    147.3000000              1.000000       
S   1   1.00
     47.5500000              1.000000       
S   1   1.00
     16.7600000              1.000000       
S   1   1.00
      6.2070000              1.000000       
S   1   1.00
      0.6882000              1.000000       
S   1   1.00
      1.7520000              1.0000000        
S   1   1.00
      0.2384000              1.0000000        
S   1   1.00
      7.8450000              1.0000000        
S   1   1.00
     21.0320000              1.0000000        
S   1   1.00
      0.0737600              1.0000000        
P   1   1.00
     34.4600000              1.000000        
P   1   1.00
      7.7490000              1.000000        
P   1   1.00
      2.2800000              1.000000        
P   1   1.00
      0.7156000              1.0000000        
P   1   1.00
      0.2140000              1.0000000        
P   1   1.00
     15.1590000              1.0000000        
P   1   1.00
     57.4370000              1.0000000        
P   1   1.00
      0.0597400              1.0000000        
D   1   1.00
      2.3140000              1.0000000        
D   1   1.00
      0.6450000              1.0000000        
D   1   1.00
     15.8580000              1.0000000        
D   1   1.00
      0.2140000              1.0000000        
F   1   1.00
      1.4280000              1.0000000        
F   1   1.00
      0.5000000              1.0000000        
****

Co 0
QMC_SC 2 10
COMMENT LINE
3
1 4.18819322 17.00000000
3 4.42968808 71.19928469
2 4.39800669 -77.65278252
COMMENT LINE
1
2 10.86075441 113.90484511
COMMENT LINE
1
2 9.05202771 56.10698766
O 0
QMC 1 2
COMMENT LINE
3
1 9.29793903 6.00000000
3 8.86492204 55.78763416
2 8.62925665 -38.81978498
COMMENT LINE
1
2 8.71924452 38.41914135

